2140
Lattice="40.2195678775 0.0 0.0 0.0 29.130715333 0.0 0.0 0.0 26.9517398941" Properties=species:S:1:pos:R:3:ring:I:1 pbc="T T T"
C       23.61510000      17.85030000      18.43700000        0
C       24.93800000      17.82640000      18.69960000        0
C       26.14570000      18.59200000      18.53390000        0
C       26.88480000      19.88120000      19.32240000        0
Cl      22.85970000      18.05820000      20.41540000        0
Cl      22.55330000      17.20320000      17.48680000        0
H       30.51210000      14.58680000      17.97360000        0
H       26.97940000      19.52610000      20.39500000        0
C       26.01410000      20.87340000      24.90680000        0
C       26.43580000      22.23780000      25.22390000        0
C       26.47460000      18.75400000      23.66770000        0
C       26.52780000      19.72260000      24.72800000        0
H       26.34530000      19.16390000      25.65320000        0
C       27.64470000      22.35870000       4.25232000        0
C       27.25140000      23.29490000       5.14797000        0
C       26.03690000      22.98690000       2.58489000        0
C       24.76800000      23.03820000       2.71570000        0
Cl      29.16080000      21.89400000       4.01802000        0
Cl      21.14350000      17.99290000       1.13925000        0
H       26.43170000      23.82320000       5.01665000        0
H       30.77190000      17.54270000       8.80701000        0
C       29.11500000      23.55070000       6.63049000        0
C       27.98410000      24.05840000       5.92617000        0
C       28.55070000      23.42230000       9.15034000        0
C       29.15590000      22.97730000       7.87904000        0
H       29.93310000      23.08900000       6.20053000        0
C       23.97930000      18.05600000      11.86780000        0
C       23.02930000      18.26500000      10.93350000        0
C       22.91650000      19.32640000      10.20610000        0
C       23.56810000      20.79770000      10.43350000        0
Cl      22.84020000      15.02630000       6.12612000        0
Cl      34.39450000      17.90930000       8.10613000        0
C       29.24340000      20.71630000      18.69550000        0
C       29.38770000      22.07630000      18.29180000        0
C       28.31700000      18.57500000      17.91590000        0
C       28.11640000      19.90230000      18.47170000        0
Cl      30.68680000      20.08760000      19.20070000        0
Cl      26.20260000      20.58410000      11.12320000        0
H       24.86580000      24.51530000      20.07600000        0
C       25.94710000      21.09340000      19.04680000        0
C       26.32210000      22.36140000      18.86120000        0
C       25.49830000      23.21640000      17.95580000        0
C       24.78950000      24.37450000      18.14910000        0
H       27.34240000      22.69940000      19.00320000        0
H       24.26210000      24.57580000      17.23840000        0
C       28.03100000      25.13450000      24.39610000        0
C       27.46990000      26.26180000      24.81640000        0
C       27.64420000      22.67840000      25.54230000        0
C       27.76600000      24.19350000      25.51710000        0
Cl      28.02190000      24.96830000      22.75110000        0
Cl      18.10400000      23.51580000       1.34798000        0
Cl      29.19680000      21.87610000      25.26790000        0
H       26.56100000      26.31600000      25.50650000        0
H       20.19870000      23.66470000       0.01936540        0
H       28.20770000      24.70380000      26.46730000        0
H       26.69980000      24.39530000      25.83980000        0
C       23.51160000      22.75460000       3.09890000        0
C       22.07210000      22.44020000       3.46200000        1
C       21.85690000      20.95300000       3.58489000        1
C       22.76070000      20.21210000       4.34089000        1
Cl      26.61900000      24.35140000       1.73880000        0
H       23.78790000      20.36040000       4.72042000        0
H       22.12360000      27.31650000       7.48862000        0
C       26.42530000      27.29650000       8.03411000        0
C       27.52510000      28.12260000       7.92773000        0
C       27.58130000      25.38920000       6.46160000        0
C       26.41380000      26.09600000       7.11576000        0
Cl      28.60850000      26.52220000       5.61454000        0
C       23.73530000      21.81260000      11.52190000        0
C       23.77730000      23.32900000      11.29870000        0
C       23.84320000      24.13510000      10.21270000        1
C       24.25020000      25.45500000      10.06600000        1
Cl      22.90040000      28.33320000      16.28090000        0
H       22.16750000      26.07620000      16.50430000        0
C       28.83660000      24.85060000      17.43890000        0
C       28.10330000      25.44490000      16.17870000        0
C       30.28120000      23.10450000      18.20390000        0
C       30.03820000      24.31780000      17.47360000        0
Cl      27.96780000      25.22630000      18.93460000        0
Cl      24.13620000      20.86480000      19.24760000        0
Cl      32.04680000      23.01880000      18.51330000        0
H       30.78940000      24.65490000      16.59810000        0
C       24.66970000      25.14250000      19.22670000        0
C       24.51940000      26.56340000      19.28900000        0
C       24.61560000      27.10880000      20.55950000        0
C       24.46790000      28.59870000      20.80780000        0
Cl      24.93110000      14.28000000      23.63580000        0
C       27.74400000      28.88600000      21.98000000        0
C       27.87270000       1.40161000      22.09430000        0
C       27.29540000      27.49890000      23.98100000        0
C       28.09230000      27.93950000      22.96670000        0
Cl      24.72900000       2.17826000      26.52520000        0
H       28.70770000      26.98880000      22.68960000        0
C       22.12650000      19.08090000       4.82631000        1
C       21.07910000      18.40780000       4.43189000        1
C       20.33980000      19.17210000       3.75283000        1
C       20.52120000      20.46670000       3.43183000        1
Cl      22.99010000      17.91530000       5.75690000        0
Cl      24.28890000      25.01750000       5.13709000        0
H       21.12220000      17.34840000       4.60229000        0
C       30.41300000      28.23510000       8.79368000        0
C       31.68580000       5.20443000       8.74314000        0
C       28.30620000      29.05300000       7.86844000        0
C       29.70490000       0.26557800       7.94163000        0
Cl      30.76170000      26.71800000       8.09119000        0
Cl      29.60460000       1.87079000       1.31577000        0
H       31.87780000       5.03491000       9.71915000        0
H       30.35800000       1.18115000       7.39714000        0
C       24.21640000      26.61320000      10.95550000        0
C       23.43460000      27.35150000      11.81550000        0
C       23.07180000      28.27540000      12.49860000        0
C       22.13780000       0.06409210      13.01690000        0
C       27.77280000       0.05609350      16.57550000        0
C       26.62630000       0.85722600      16.17080000        0
C       27.38140000      26.66400000      15.92250000        0
C       27.80540000      27.77620000      16.49940000        0
Cl      19.46410000       5.84690000      18.48600000        0
Cl      26.62680000      26.79910000      14.17340000        0
H       24.32380000       1.15536000      19.42550000        0
H       28.57880000      27.51050000      17.30890000        0
C       23.36440000       0.16858000      21.06770000        0
C       22.88780000       1.14351000      21.83810000        0
C       23.93640000       1.59869000      22.86930000        0
C       24.06930000       1.98565000      24.05310000        0
Cl      19.38370000      26.89370000      10.98720000        0
H       18.38000000      25.89650000      10.98520000        0
C       25.99660000       4.63240000      20.98050000        0
C       26.40650000       6.10626000      20.98090000        0
C       27.20420000       2.39698000      21.11170000        0
C       27.02330000       3.65958000      21.50590000        0
Cl      24.56640000       4.45586000      22.05800000        0
H       27.48950000       9.14688000      24.13460000        0
H       27.25810000       3.77958000      22.51480000        0
C       19.36800000      21.31410000       3.42383000        1
C       19.69040000      22.56920000       4.03519000        1
C       20.95600000      23.21310000       3.48501000        1
C       21.52730000      24.46110000       3.38300000        0
Cl      28.80630000      17.77460000       2.89113000        0
Cl      29.72860000       1.76771000      23.36040000        0
H       18.50200000      21.19550000       4.22346000        0
H       32.76800000       6.08687000       2.75824000        0
C       33.09260000       8.32639000       7.23107000        1
C       32.83470000       9.68270000       6.75506000        0
C       32.77550000       6.23302000       8.41341000        1
C       32.28270000       7.40926000       7.73045000        1
H       31.17970000       7.49957000       7.43890000        0
C       22.36150000       1.54815000      12.83480000        0
C       21.52100000       2.47664000      13.38430000        0
C       21.81420000       3.77876000      13.12450000        0
C       22.53480000       4.83554000      12.73680000        0
Cl      24.02910000       1.91226000      12.19060000        0
Cl      31.56810000      27.27020000      15.91340000        0
Cl      22.14820000       2.71647000       8.65656000        0
H       20.39950000       2.36747000      13.79120000        0
C       24.55530000       3.46308000      15.71500000        0
C       25.81710000       4.14006000      15.62750000        0
C       25.48110000       0.86693200      15.67410000        0
C       24.41010000       1.98281000      15.53050000        0
Cl      23.08110000       4.61368000      15.92520000        0
Cl      28.08480000      25.07190000       8.90504000        0
H       23.65180000       1.60688000      15.97800000        0
C       24.21900000       3.04479000      25.02710000        0
C       23.78610000       4.48968000      25.09170000        0
C       24.12930000       5.50241000      26.12470000        0
C       24.35600000       6.71508000      26.62070000        0
Cl      24.47660000       6.45951000      12.30450000        0
Cl      33.42490000       5.43753000      16.24970000        0
C       27.74290000       9.06883000      19.30770000        0
C       27.19050000      10.19620000      19.04510000        0
C       27.23180000       6.85919000      20.30390000        0
C       27.02270000       8.17872000      19.94050000        0
Cl      29.39120000       8.91734000      19.14320000        0
Cl      18.73450000      21.41410000       6.39233000        0
H       26.20970000      10.33400000      18.84390000        0
H       20.42160000      11.64890000      26.24880000        0
H       26.11690000       8.87443000      20.16230000        0
C       22.43320000      25.19420000       2.95574000        0
C       23.44420000      26.18070000       2.75810000        0
C       24.52300000      25.82660000       3.56468000        0
C       25.73780000      26.35790000       2.98727000        0
H       32.53720000       8.33347000       4.84202000        0
H       26.53080000      25.81100000       3.28903000        0
C       29.73030000      11.52460000       7.10866000        0
C       28.45840000      11.57150000       7.52862000        0
C       31.78460000      10.69840000       6.62213000        0
C       30.47220000      10.38580000       7.02788000        0
Cl      28.47570000      15.15340000       8.40707000        0
H       24.58650000       5.58043000       6.12026000        0
H       30.22730000       9.40793000       7.19277000        0
C       22.71770000       6.23551000      12.82630000        0
C       21.71660000       7.15427000      13.28950000        0
C       21.85910000       8.67865000      13.56360000        0
C       23.19430000       8.99162000      13.68370000        0
Cl      27.62680000       4.57966000       9.43152000        0
Cl      29.93960000       5.37573000      14.68370000        0
Cl      23.59730000      10.58150000      19.46130000        0
H       23.84650000       8.20789000      13.56090000        0
C       25.91870000       7.85323000      15.80350000        0
C       25.71450000       9.05689000      15.44390000        0
C       26.02520000       5.34410000      16.23270000        0
C       25.92260000       6.52748000      15.97140000        0
C       24.50150000       7.97326000       0.10697500        0
C       24.90430000       8.80792000       0.84384300        0
C       24.93170000      10.07420000       1.25519000        0
C       24.83390000      10.65060000       2.56035000        0
H       30.42320000       6.10473000      23.38230000        0
H       24.37190000      10.21500000       3.25709000        0
C       26.78110000      13.67120000      19.94810000        1
C       27.90700000      14.35090000      20.10310000        1
C       27.64980000      11.59040000      19.21460000        1
C       26.54960000      12.42000000      19.43110000        1
Cl      26.50130000      14.77690000       6.01061000        0
Cl      25.28720000      14.37270000      19.67530000        0
Cl      11.01200000      18.01410000      24.22010000        0
H       25.76990000      14.30470000      26.13270000        0
H       25.59870000      12.00000000      19.22290000        0
C       25.35190000      27.18530000       1.83252000        0
C       23.82600000      27.08880000       1.86372000        0
C       21.56210000      16.48480000       1.11906000        0
C       22.03440000      15.78430000       2.19432000        0
Cl      26.30650000      27.93530000       0.67786000        0
Cl      22.45380000       6.09417000       9.38319000        0
C       26.36950000      13.23070000       9.82970000        0
C       25.62050000      13.43450000      11.04930000        0
C       27.38420000      12.09610000       7.79181000        0
C       26.68800000      12.47810000       8.88891000        0
H       24.55150000      13.49310000      11.08460000        0
H       23.74530000      11.01990000      10.24370000        0
C       23.81500000      10.16070000      14.33220000        0
C       23.06150000      11.41810000      14.59330000        0
C       24.08570000      12.31080000      14.85200000        0
C       24.16010000      13.73030000      14.73140000        0
Cl      19.41950000      11.67770000      23.13860000        0
Cl      27.50610000      12.76000000      16.39000000        0
H       20.20460000       7.42481000       9.48693000        0
C       25.97720000      12.87300000      15.84440000        0
C       25.20670000      14.06630000      15.59020000        0
C       25.34560000      10.20350000      14.88140000        0
C       25.31750000      11.65000000      15.23450000        0
Cl      20.14960000      13.63830000      18.09340000        0
H       22.94070000      15.70780000      19.68300000        0
C       24.96110000      12.02910000       2.98531000        0
C       24.51450000      13.20590000       3.24244000        0
C       23.64070000      14.30210000       2.96486000        0
C       22.35680000      14.29870000       2.23373000        0
Cl      24.69450000      11.20970000       6.03808000        0
Cl      23.64420000      11.62110000      22.82310000        0
H       22.49270000       5.03466000      10.17530000        0
H       32.13960000      11.62050000      18.42940000        0
H       33.71230000      17.64280000       2.75295000        0
H       21.80820000      13.42290000       2.10841000        0
C       27.86650000      17.38320000      22.03680000        0
C       27.49860000      18.32990000      22.96170000        0
C       27.84900000      15.59030000      20.66470000        1
C       27.04310000      16.40350000      21.60750000        0
Cl      19.20170000      14.79730000      25.96810000        0
H       16.56150000      16.40960000      26.82130000        0
H       26.00330000      16.38350000      21.95770000        0
C       23.78920000      15.61240000       2.72673000        0
C       24.58510000      16.64580000       2.64003000        0
C       26.25580000      20.51780000       3.38298000        0
C       26.68080000      21.78290000       3.38732000        0
Cl      22.42090000       9.84435000       5.78894000        0
Cl      32.56830000      17.20790000       3.47419000        0
Cl      17.66530000      12.31400000      25.73920000        0
H       24.03670000      17.49610000       2.33613000        0
C       27.06530000      22.11320000      10.98850000        0
C       27.97890000      22.35780000       9.98912000        0
C       26.47860000      13.89870000      12.05370000        0
C       25.86420000      15.26340000      12.47830000        0
Cl      30.04250000      21.44220000       8.11172000        0
Cl      26.96190000      23.16550000      12.28880000        0
Cl      21.78580000       8.47574000      10.37760000        0
H       24.97290000      22.89230000       7.31650000        0
H       22.98240000      14.72670000       9.83374000        0
H       26.33660000      16.23180000      12.17760000        0
H       25.04610000      14.99150000      11.94280000        0
C       23.49990000      14.85710000      14.15120000        0
C       24.28810000      15.97000000      14.61820000        0
C       24.55940000      17.31430000      14.39830000        0
C       24.35000000      17.83900000      13.05220000        0
H       22.48680000      17.31590000       8.52184000        0
C       27.18890000      16.97880000      16.61850000        0
C       27.14760000      17.98760000      17.81650000        0
C       25.42090000      15.42030000      15.55650000        0
C       26.22860000      16.12290000      16.27850000        0
Cl      17.12030000      15.24810000      14.14150000        0
Cl      18.83480000       6.03134000      11.02560000        0
C       28.92590000      13.69670000      19.34310000        1
C       29.81300000      14.63040000      18.90440000        1
C       29.98280000      15.93210000      19.38570000        1
C       29.15380000      16.52830000      20.43140000        1
H       33.19950000      19.04620000      22.92580000        0
C       29.04610000      17.17100000      25.91330000        0
C       28.69760000      17.47380000       0.34519400        0
C       27.04600000      15.78680000      25.42200000        0
C       28.42980000      15.96050000      25.44120000        0
Cl      30.07460000      18.35390000      25.03580000        0
Cl      25.14150000      17.77490000      23.41510000        0
Cl      25.79640000      16.47560000      26.70350000        0
H       28.33000000      16.72270000       0.96397300        0
H       25.77640000      22.99350000      25.51310000        0
H       28.87220000      15.25830000      24.60450000        0
C       30.65480000      16.47770000       6.97622000        0
C       30.54030000      17.62700000       7.66701000        0
C       30.93370000      18.63210000       6.93772000        0
C       31.93970000      19.52820000       7.39973000        0
Cl      30.00330000      18.71160000       5.52089000        0
Cl      32.47940000      20.32460000      25.70190000        0
H       34.64960000      21.17780000      26.07850000        0
H       32.11360000      19.02400000       8.31416000        0
C       35.93170000      21.37600000       1.15664000        1
C       35.13230000      20.58570000      26.92630000        1
C       35.96930000      19.12280000       2.10591000        1
C       36.28040000      20.40730000       2.07797000        1
Cl      22.27290000      22.67740000       6.91877000        0
Cl       1.87488000      20.59320000       2.99242000        0
C       29.93060000      18.32020000      12.33200000        0
C       30.91300000      17.27670000      12.43780000        0
C       31.44750000      15.98050000      12.10280000        0
C       31.22280000      17.34460000      13.95670000        0
Cl      25.07850000      18.51750000      15.52210000        0
H       30.19450000      19.87020000      15.64440000        0
C       32.08980000      16.46790000      14.16730000        0
C       30.39430000      18.69020000      16.08630000        0
C       32.55810000      14.08930000      13.14890000        0
C       31.88650000      15.23450000      13.21080000        0
Cl      32.59130000      15.74440000      15.78320000        0
H       28.57680000      22.02100000      17.65350000        0
H       33.09950000      13.38250000      13.87950000        0
C       29.06440000      17.45060000      21.33340000        0
C       29.88520000      18.44950000      21.82310000        0
C       30.47810000      19.54680000      22.21270000        0
C       31.37920000      20.67750000      22.35720000        0
Cl      31.35060000      16.76770000      18.79330000        0
H       32.36580000      20.54250000      22.65580000        0
C       30.74170000      20.50630000       1.65559000        0
C       30.59050000      22.06790000       1.52338000        0
C       29.09880000      18.51040000       1.17077000        0
C       29.85780000      19.65490000       0.90129200        0
Cl      25.20250000      19.94490000       2.31518000        0
H       29.61660000      22.14530000       0.98311500        0
H       29.87160000      20.47910000       0.23175300        0
C       32.75250000      20.55950000       6.89113000        0
C       33.32860000      21.44340000       7.68008000        0
C       33.75240000      22.89440000       7.15916000        0
C       34.71720000      26.97850000       4.75190000        1
Cl      32.12050000      20.34850000       2.56253000        0
Cl      33.99460000       9.39876000      24.32950000        0
H       34.90650000      26.13000000       5.31875000        0
C       36.06000000      24.79380000       2.65830000        0
C       35.57170000      26.07170000       2.18824000        0
C       36.63550000      22.73950000       1.10798000        0
C       36.57440000      23.58700000       2.31864000        0
Cl      29.68060000       1.67542000      10.19960000        0
C       30.64710000      18.31010000      14.64750000        0
C       29.70520000      18.93870000      13.67160000        0
C       30.00230000      20.35840000      13.44750000        0
C       30.38710000      21.25350000      12.69270000        0
Cl      33.14790000      19.22610000      13.53440000        0
Cl      22.75280000      25.27170000      14.27480000        0
C       33.91640000      26.77610000      17.60950000        0
C       34.58620000      27.89980000      16.90320000        0
C       29.26400000      18.28110000      16.77050000        0
C       28.49040000      17.33480000      16.19620000        0
Cl      33.11880000      26.99240000      19.09990000        0
H       28.27680000      24.74100000      15.34740000        0
H       26.47330000      15.10940000      13.45900000        0
C       30.99470000      21.91840000      22.26830000        0
C       31.47020000      23.36630000      22.47420000        0
C       32.40410000      23.86780000      23.25820000        0
C       33.07150000      25.08250000      23.05900000        0
Cl      29.38720000      22.25430000      21.48580000        0
Cl      33.40920000      25.19470000      16.94920000        0
Cl      32.90540000      23.21210000      24.75320000        0
H       31.33920000      23.86260000      21.46490000        0
H       36.44710000      28.87520000      18.60220000        0
H       34.21030000      24.82910000      23.39700000        0
C       30.67000000      25.57590000       1.95986000        0
C       30.03320000      26.53060000       1.23485000        0
C       31.19850000      23.09540000       1.78753000        0
C       30.44790000      24.36730000       1.46468000        0
Cl      31.42810000      25.57870000       3.53020000        0
Cl      26.30820000      28.89850000      24.27940000        0
Cl      32.82720000      23.59000000       1.71388000        0
H       27.35100000       1.88249000      23.02350000        0
H       29.93190000      24.45770000       0.33342600        0
C       33.82480000      28.13420000       5.29236000        1
C       33.37590000       0.07289140       4.39797000        1
C       33.48280000      29.03260000       2.97760000        1
C       32.52610000       0.13504000       1.62572000        0
Cl      33.82230000      28.54680000       6.98875000        0
H       32.85880000       1.11286000       4.70351000        0
H       32.35830000       1.16116000       1.23002000        0
C       35.00630000      26.56040000       1.01426000        0
C       34.03910000      27.55270000       1.17732000        0
C       34.82430000      27.02610000       3.26166000        1
C       34.05230000      27.94950000       2.64684000        1
Cl       0.00153212      24.68820000       4.60220000        0
Cl      32.30400000      21.33690000      15.71980000        0
H       37.52990000      14.94240000       1.40065000        0
C       30.71660000      22.40230000      11.95290000        0
C       30.49570000      23.82480000      12.12210000        0
C       30.06070000      24.26680000      13.38180000        0
C       29.95970000      25.53620000      13.81200000        0
Cl      23.85020000      11.75120000      11.73340000        0
H       30.45300000      23.57950000      14.28720000        0
H       29.97670000      25.61770000      14.95480000        0
C       35.61460000       1.61779000      16.31760000        0
C       36.44500000       2.69828000      16.20230000        0
C       34.92500000      28.39760000      15.55570000        0
C       35.67100000       0.46194600      15.65220000        0
Cl      34.33420000       2.28693000      17.19090000        0
Cl      35.37560000      27.61870000      14.12430000        0
H       37.55040000       2.36449000      16.32140000        0
H       36.59810000       0.42487600      14.90430000        0
C       32.79970000      26.32000000      22.56390000        0
C       33.57110000      27.49390000      22.42380000        0
C       33.54760000      28.81900000      21.95300000        0
C       33.08760000       0.87307700      21.54270000        0
Cl      39.45060000       5.79783000      22.86990000        0
H       32.04240000       1.49905000      23.02980000        0
C       29.08410000       0.80434200      26.91120000        0
C       28.59870000       1.63926000      25.85740000        0
C       29.56180000      27.76010000       1.21449000        0
C       29.00070000      28.50260000       0.05754840        0
Cl      32.14990000      27.96970000      26.25060000        0
Cl      27.77110000      28.45490000      20.25510000        0
Cl      29.27490000      28.41670000       2.71041000        0
H       27.98110000       1.34583000      25.02330000        0
H       28.63110000      27.95060000      26.12040000        0
H       34.39650000      27.48540000      23.05880000        0
C       32.92140000       4.47477000       4.12475000        0
C       33.28180000       5.69166000       3.62330000        0
C       34.21710000       6.63215000       3.95303000        0
C       34.13080000       7.98680000       3.37765000        0
Cl      33.80430000       3.36549000       5.16172000        0
Cl      31.15750000       3.76381000       3.74678000        0
Cl      36.34140000      10.37070000       2.60220000        0
H       31.53270000      28.90360000       1.90496000        0
H       34.57330000       8.44258000       2.40508000        0
C       34.14600000       6.20164000       8.53735000        1
C       34.98230000       7.17572000       8.08462000        1
C       33.20660000      28.60260000       0.56404500        0
C       33.95800000       0.85396700      26.68450000        0
Cl      34.85640000       5.11399000       9.67233000        0
Cl      35.00250000      25.31580000      26.67580000        0
H       34.60300000       0.43065600      25.95450000        0
C       29.50470000      26.69270000      13.34450000        0
C       29.70950000      27.88410000      14.05100000        0
C       30.49610000      28.47650000      15.06900000        0
C       31.04800000       0.61318200      15.37170000        0
Cl      28.96460000      26.91690000      11.43840000        0
Cl      35.01420000       1.61850000       8.84894000        0
H       29.46140000      28.51020000      13.26690000        0
H       31.27780000       0.49788700      16.40010000        0
C       36.26950000       6.25659000      15.93990000        0
C       35.51560000       7.60198000      15.57460000        0
C       36.29260000       3.88429000      15.41460000        0
C       36.30940000       5.11370000      15.17810000        0
H       26.63400000       3.92085000      15.03670000        0
C       32.62320000       1.92662000      22.25900000        0
C       32.79740000       3.21346000      21.94020000        0
C       32.87980000       4.37106000      21.49440000        0
C       32.62580000       5.73577000      21.83780000        0
H       33.74970000       4.96049000      17.50410000        0
H       32.65280000       6.37370000      20.95330000        0
H       25.54540000       6.86183000      21.59040000        0
C       27.42840000       5.37771000       0.39562700        0
C       27.87860000       6.76139000       0.77723200        0
C       28.47190000       3.03017000      25.97230000        0
C       28.64540000       4.15461000       0.00641150        0
Cl      34.27880000      13.13300000      23.09520000        0
Cl      28.82540000       5.78454000      20.47900000        0
Cl      27.65070000       3.76101000      24.78230000        0
H       28.64700000       3.81201000       0.96481400        0
C       33.04920000       8.52610000       3.89416000        0
C       32.78420000       9.80422000       3.59075000        0
C       32.64820000      11.00930000       3.24516000        0
C       31.60720000      12.04040000       3.11237000        0
Cl      36.59540000       7.25365000       8.39917000        0
Cl      35.30950000       6.35742000       5.28429000        0
C       34.16160000      10.33290000       6.47387000        0
C       31.97050000      12.04120000       6.39027000        0
C       34.48110000       8.09759000       7.17276000        1
C       35.17500000       9.45805000       6.64455000        0
Cl      30.05390000       5.54094000       9.07059000        0
Cl      32.78840000       1.55464000      25.63650000        0
H       36.32450000       9.30954000       6.68332000        0
C       31.32150000       1.63107000      14.54450000        0
C       31.47130000       2.90556000      15.41080000        0
C       30.24190000       3.94777000      15.69170000        0
C       30.22480000       4.29505000      17.01550000        0
Cl      32.98170000       1.00161000      19.86030000        0
Cl      29.68880000       6.25542000      12.02000000        0
H       31.62990000       2.61771000      16.57150000        0
H       30.68480000       4.54908000      11.05980000        0
H       29.86120000       5.34666000      16.91020000        0
C       32.42070000       8.36115000      16.00470000        0
C       31.05570000       8.44946000      15.70270000        0
C       34.93530000       8.60706000      16.39560000        0
C       33.59040000       8.56962000      16.23780000        0
Cl      36.19950000       9.12739000      17.56700000        0
C       32.37270000       6.11985000      23.03040000        0
C       31.12960000       6.87753000      22.95980000        0
C       30.58120000       8.21286000      22.91790000        0
C       29.35400000       9.06361000      23.23950000        0
Cl      33.27970000       5.70413000      24.43010000        0
Cl      36.72510000      17.07100000      25.32870000        0
H       29.24150000      10.19840000      22.92010000        0
C       29.27700000       9.71047000       0.65238800        0
C       28.34900000      10.76850000       0.87286500        0
C       29.10850000       7.29032000       1.14235000        0
C       29.55130000       8.45578000       1.49943000        0
Cl      26.73900000      19.44820000       4.71480000        0
Cl      30.07130000       5.85612000       2.24087000        0
H       30.37790000       8.73195000       2.08094000        0
C       30.38030000      12.14340000       3.61441000        0
C       29.40240000      12.77370000       4.06279000        0
C       28.78410000      13.84040000       3.30400000        0
C       28.14670000      14.78990000       4.00474000        0
Cl      29.76320000      10.14390000       4.28128000        0
H       28.97140000      12.18790000       4.56499000        0
H       30.64340000      12.20710000      24.31020000        0
H       27.40280000      15.27230000       3.37047000        0
C       33.36230000      13.92610000       5.71294000        0
C       34.05210000      14.92940000       5.18982000        0
C       30.62280000      12.77580000       6.74820000        0
C       32.82070000      12.85850000       5.90717000        0
Cl       0.08584990       8.94368000       4.84856000        0
C       30.67880000       3.54950000      18.29000000        0
C       30.06200000       2.19557000      18.47400000        0
C       29.07150000       1.82415000      17.56180000        0
C       28.88460000       0.43759200      17.25400000        0
Cl      31.97130000       4.10583000      19.07130000        0
Cl      27.93440000       2.72807000      16.77530000        0
H       30.57780000       1.44590000      18.91310000        0
H       37.17530000       6.56661000      16.72460000        0
H       29.10120000      28.86120000      18.06870000        0
C       28.75800000       9.61487000      13.03160000        0
C       29.47780000      10.61400000      12.43770000        0
C       30.51810000       8.93351000      14.44010000        0
C       29.12330000       8.94623000      14.17710000        0
Cl      26.95890000       9.14663000      12.46060000        0
Cl      31.55610000       8.84944000      10.29000000        0
H       22.65050000      15.34250000      13.59910000        0
H       28.25940000       8.68305000      14.83400000        0
C       28.27880000       8.46266000      23.84350000        0
C       30.99330000      11.80220000      17.61070000        0
C       29.81210000      12.03670000      18.03700000        0
C       28.91810000      12.25670000      18.94130000        1
Cl      27.95330000       6.94021000      24.24930000        0
H       37.18460000      16.55300000      21.48950000        0
C       27.00280000      13.49890000      25.29480000        0
C       26.05470000      14.54250000      25.12310000        0
C       28.11140000      11.79660000      26.80960000        0
C       27.40390000      12.52910000      26.10600000        0
Cl      27.75780000      12.77780000      23.50340000        0
Cl      30.42100000      14.68270000      22.68710000        0
Cl      28.16730000      13.43720000       1.64900000        0
H       29.79350000       9.62830000      26.67270000        0
H       28.31960000      18.95970000      23.44200000        0
C       28.04680000      14.68370000       5.55634000        0
C       28.95150000      14.55530000       6.52011000        0
C       30.31400000      14.21410000       6.39195000        0
C       31.21320000      15.26310000       6.78648000        0
H       34.85170000      15.10010000       2.64091000        0
H       32.42880000      15.27960000       6.85353000        0
C       36.49310000      17.37720000       3.94701000        0
C       37.02430000      18.17370000       3.05175000        0
C       34.78150000      15.93130000       5.02973000        0
C       35.44770000      17.07480000       4.70283000        0
Cl      38.26260000      16.18730000       4.06898000        0
Cl      27.89590000      13.21340000      12.49130000        0
H       37.97680000      18.19190000       2.59136000        0
H       27.95020000      21.53630000       9.41285000        0
H       34.89770000      18.07990000       5.18555000        0
C       26.83050000      18.14880000       8.45766000        0
C       26.90470000      17.77420000       9.84802000        0
C       27.99060000      18.20400000      10.63180000        0
C       29.12400000      18.24220000      11.26850000        0
Cl      28.16260000      19.12660000       7.91931000        0
Cl      25.64470000      17.39810000       7.58728000        0
H       25.95290000      17.17950000      10.39300000        0
C       31.50780000      12.14460000      12.05460000        0
C       31.94300000      13.20880000      12.52580000        0
C       29.78110000      10.63480000      11.14450000        0
C       30.80370000      11.49080000      10.94010000        0
Cl      29.31020000       9.80728000       9.49124000        0
H       31.65080000      11.30880000      10.11420000        0
C       34.62430000      18.34730000      21.77140000        0
C       34.12120000      19.36800000      22.41780000        0
C       34.57210000      20.49340000      21.96240000        0
C       34.97060000      21.61650000      21.62890000        0
Cl      36.28740000      18.21310000      22.56750000        0
Cl      10.03650000       6.63735000      12.95410000        0
H        5.45882000      20.23400000      16.11960000        0
C        0.25863100      20.54930000      26.21750000        0
C        1.11237000      21.42920000      26.94570968        0
C       39.21200000      20.35320000      24.06940000        0
C       39.76740000      21.22290000      25.06410000        0
Cl      39.59090000      19.30800000       0.13717300        0
Cl      38.81160000      18.74980000      24.37750000        0
H        1.53968000      20.76300000       0.80179700        0
H       39.54180000      22.41190000      24.63100000        0
C       35.13100000      18.55390000       1.08582000        1
C       34.59470000      19.40850000       0.21564200        1
C       33.64600000      18.98830000      26.25180000        1
C       33.22920000      17.66500000      26.15740000        1
Cl      32.40050000      20.63510000       5.17482000        0
Cl      32.03140000      10.98990000      26.45770000        0
Cl       1.84775000      28.70680000      23.27600000        0
H        2.79563000      18.23890000       3.72140000        0
H       32.68850000      17.26820000      25.33190000        0
C       38.16290000      28.45320000       7.49594000        0
C       36.92150000       0.12786000       7.29714000        0
C       39.58020000      27.06690000       5.60484000        0
C       38.73160000      28.06070000       6.03437000        0
H       38.89130000       0.39664900       9.84026000        0
C       34.49150000      13.73750000       9.85790000        0
C       32.87350000      23.73150000       7.76093000        0
C       32.43660000      23.07640000       9.13596000        0
C       32.93400000      21.58400000       9.01175000        0
Cl      38.77730000      10.77900000       9.73292000        0
Cl      34.04150000      13.09240000       8.32672000        0
H       32.82920000      24.81830000       7.52892000        0
H       36.94390000      20.63350000      10.75480000        0
C       35.83290000      22.38710000      11.47590000        0
C       36.29280000      20.95870000      11.75020000        0
C       34.81290000      19.87150000      15.34760000        0
C       33.50510000      20.15590000      14.80450000        0
Cl      27.81120000      18.73980000      13.75400000        0
H       37.14390000      20.68300000      12.51070000        0
H       31.25150000      18.79920000      16.65660000        0
H       35.86080000      22.93510000      10.38060000        0
C       35.79820000      22.63510000      21.30900000        0
C       35.33790000      23.73700000      20.47480000        0
C       35.67520000      25.06760000      20.86300000        0
C       35.73170000      26.35610000      20.20560000        0
Cl      37.35810000      24.52020000      23.98130000        0
Cl       0.17131900      21.07260000      15.14230000        0
Cl      37.35770000      23.22490000      26.59190000        0
H       34.72730000      23.72550000      19.52240000        0
H        7.19224000      25.35860000      12.01990000        0
H       35.81750000      26.23810000      19.07660000        0
C        4.31168000      23.36770000      26.57310000        0
C        5.54226000      23.74310000      26.85470000        0
C        2.12631000      22.04820000      26.39660000        0
C        3.17786000      22.65360000       0.16256800        0
Cl      31.04560000      26.55480000      22.00160000        0
Cl       1.68564000      17.75960000      24.10770000        0
H        3.21600000      22.64590000       1.39076000        0
C        1.15543000      27.71880000      22.01730000        0
C        0.46712200      26.62130000      21.77610000        0
C       39.88200000      25.59440000      21.61250000        0
C       39.36320000      24.44610000      21.30260000        0
Cl      36.69070000       0.02612710       1.28738000        0
Cl       1.69915000      28.54990000      20.34060000        0
Cl       7.36159000      23.93830000       4.56449000        0
H       35.62730000      25.21220000      22.15300000        0
C       36.46080000      28.23900000      10.61870000        0
C       36.97350000      28.45020000       9.46870000        0
C       36.35300000       0.25507000       8.45335000        0
C       32.36320000      28.66960000      12.09300000        0
Cl      35.28000000      28.90140000      11.48910000        0
H       33.01860000      28.62880000      12.92180000        0
C       32.25350000      21.02420000      10.09980000        0
C       31.73050000      22.07520000      10.91860000        0
C       31.69130000      23.05550000      10.14120000        0
C       31.24950000      24.16860000      10.89000000        0
H        1.71031000       0.09249800      10.85450000        0
C       36.14880000      23.01840000      14.49790000        0
C       37.66010000      23.24660000      14.07210000        0
C       35.18250000      23.28640000      12.36930000        0
C       34.98290000      23.30510000      13.74400000        0
Cl      32.85670000      19.45170000      10.42760000        0
H       37.93060000      23.01430000      13.05150000        0
H       34.87460000      28.79900000      17.48870000        0
H       34.13380000      23.41870000      14.33380000        0
C       36.21440000      27.56330000      20.56700000        0
C       36.61440000      28.90230000      19.85580000        0
C       37.95920000       0.32584900      19.94510000        0
C       38.34240000       1.27056000      20.74140000        0
Cl      36.33590000      27.79090000      22.24870000        0
Cl      39.33400000      28.38010000      19.72330000        0
H       35.61810000       0.38959900      20.06540000        0
H       39.47650000       1.44527000      20.95240000        0
C        8.37201000      25.34440000      24.70690000        0
C        7.53035000      25.64490000      23.76950000        0
C        6.38777000      24.34420000      25.86430000        0
C        7.74355000      24.63110000      25.81690000        0
Cl       0.76495900       5.45898000      25.70110000        0
H       30.06860000      26.36740000       0.12794500        0
H        8.01048000      28.07700000       0.64876800        0
C       38.40910000      23.63540000      21.46210000        0
C       37.49080000      22.41890000      21.41030000        0
C       34.15300000       8.79247000      26.12640000        0
C       34.61310000       9.89483000      26.72510000        0
Cl       5.74622000      25.89230000       2.06224000        0
H       37.09740000      22.70380000      22.56280000        0
C       37.49290000       2.92379000       2.73679000        0
C       36.19000000       2.47876000       2.37666000        0
C       38.22340000      27.57230000       8.68334000        0
C       37.87150000      26.09530000       8.28513000        0
Cl      36.32890000       1.56677000      23.76350000        0
Cl      38.19940000       4.44047000       2.63809000        0
H       35.33480000       3.23053000       2.31786000        0
H       37.89160000      25.93280000       7.13225000        0
H       36.90020000      25.58910000       8.55885000        0
C       31.82130000      25.31290000      10.57820000        0
C       32.30000000      26.45930000      10.55170000        0
C       32.00820000      27.83850000      10.89760000        0
C       31.32320000      28.74640000       9.93439000        0
Cl      35.87880000      22.52040000      16.02780000        0
Cl      37.64990000       4.07108000       5.94863000        0
C       38.30880000      26.30550000      16.25470000        0
C       39.43310000      27.14170000      15.77590000        0
C       38.31800000      24.23060000      14.59150000        0
C       38.01340000      25.04620000      15.89380000        0
Cl      37.21270000      26.96710000      17.73210000        0
H        0.29746200      27.17520000      16.38390000        0
H       37.41560000      24.34270000      16.41230000        0
C       37.72420000       2.57438000      21.00170000        0
C       38.35420000       3.54779000      21.79160000        0
C       38.05950000       4.78102000      22.10420000        0
C       36.81680000       5.29316000      22.30420000        0
Cl      36.29870000       3.00616000      20.11490000        0
H       39.40270000       3.25618000      21.96080000        0
C        4.99222000      27.03640000      21.44330000        1
C        3.89960000      26.17490000      21.33460000        1
C        6.17870000      25.56070000      22.94780000        1
C        5.78565000      26.93780000      22.51160000        1
Cl       5.52989000      28.28110000      20.24900000        0
H        2.97909000      26.47950000      20.79850000        0
C       34.76100000      11.11100000       0.21363800        0
C       35.21560000      12.35020000       0.95973000        0
C       35.80100000      12.03390000       2.33992000        0
C       36.02900000      13.21220000       2.95779000        0
H       38.51070000      10.44420000      17.00420000        0
C       39.58710000      12.39950000       2.67088000        0
C       39.24640000      12.17430000       1.29166000        0
C       35.80660000       1.39527000       1.43185000        0
C       34.89030000       1.70542000       0.53905500        0
Cl      40.18950000      14.23190000       2.96265000        0
Cl      40.12210000      11.13170000       3.55130000        0
H       35.08650000       8.28892000       3.88301000        0
H       34.63790000       2.76095000       0.11033200        0
C       31.09660000       0.74475100      10.63770000        0
C       31.53330000       0.72658400      12.02300000        0
C       31.43190000       1.74851000      13.14480000        0
C       30.91390000       2.95133000      12.65190000        0
H       39.54990000       8.97144000       8.38915000        0
H       30.13860000       2.72648000      11.98420000        0
C       39.30020000       0.80315700      13.06330000        0
C       39.49170000       1.97708000      12.76500000        0
C       39.57300000      27.99360000      14.74390000        0
C       39.10650000      28.66340000      13.55970000        0
Cl      36.04490000       3.22148000      12.46830000        0
Cl       1.27743000      28.80290000      14.35600000        0
H       36.60290000       4.33782000      12.83700000        0
H       34.88460000       7.20364000      14.69870000        0
H       37.99970000      28.22880000      13.29620000        0
C       36.33370000       6.28606000      21.38280000        0
C       35.30450000       7.22674000      21.45380000        0
C       34.49520000       7.77568000      20.38140000        0
C       33.92080000       9.19091000      20.24860000        0
Cl      37.31300000       6.25727000      19.87300000        0
Cl       2.88556000       9.26533000      15.56720000        0
Cl      33.96530000       6.85038000      18.99980000        0
H       35.13710000       7.19403000      22.51530000        0
H        3.27667000       6.00267000      14.01590000        0
H       33.11140000       9.46609000      19.65420000        0
C       31.54750000      12.16690000      16.39390000        0
C       32.76040000      11.60280000      16.07870000        0
C        4.11444000      24.76870000      21.83130000        1
C        5.30094000      24.60170000      22.63760000        1
Cl      30.32590000      12.27350000      15.29520000        0
Cl      31.37570000       9.16912000      21.70500000        0
Cl       3.06858000      23.37530000      21.46280000        0
H       27.17580000       7.62085000       0.83916900        0
H        6.13997000      24.09090000      24.75300000        0
H       38.17450000      24.62490000      25.03170000        0
C       35.51770000      14.24870000       2.19237000        0
C       34.79600000      13.61190000       0.95869700        0
C       33.81970000      14.23150000       0.31805900        0
C       32.95210000      13.61930000      26.40860000        1
Cl      31.58970000      13.64510000       2.09327000        0
Cl      36.61060000      13.50960000       4.62110000        0
Cl      36.22700000       5.56439000      23.90240000        0
H       31.51410000      16.28610000      24.41020000        0
C       39.64190000       8.22951000       0.62675200        0
C       38.40950000       7.37748000       1.26231000        0
C       39.47360000      10.81530000       0.75626400        0
C       39.77980000       9.56225000       0.78865300        0
Cl      32.80500000       4.51401000       0.38732900        0
H        3.00116000      10.54850000       3.95429000        0
C       31.55900000       4.22971000      12.68220000        0
C       31.12960000       5.25117000      11.71190000        0
C       32.26160000       6.30870000      11.43220000        0
C       33.26630000       7.10462000      11.46540000        0
Cl      33.19960000       4.39725000      13.05810000        0
H       34.18810000       7.10706000      11.99950000        0
C       38.67840000       5.32690000      11.66390000        0
C       39.57400000       6.34740000      12.12980000        0
C       39.18280000       3.34305000      13.04680000        0
C       38.58730000       4.04209000      12.02900000        0
Cl      37.79800000       5.56949000      10.17370000        0
Cl       0.80933800      15.65370000      19.02710000        0
Cl      39.19960000       3.68306000      14.74600000        0
H       30.67280000       7.85692000      16.73440000        0
H       38.49050000       3.29116000      11.31420000        0
C       34.65900000      10.30210000      20.85750000        0
C       35.41730000      11.16450000      21.50640000        0
C       35.45900000      12.52080000      22.03290000        0
C       36.49400000      13.23740000      21.35500000        0
Cl       3.23546000       7.53983000       1.76240000        0
H       37.36510000      12.45390000      20.89660000        0
C       34.92670000      20.75890000      18.41500000        0
C       36.10850000      20.18140000      19.13190000        0
C       33.83800000      11.39910000      15.30780000        0
C       34.54750000      10.98180000      14.36610000        0
Cl      33.43790000      19.95650000      18.13240000        0
Cl      34.23000000      12.53750000      17.35170000        0
H       39.52230000      21.76130000      22.63050000        0
H       27.68420000      10.54260000       1.59129000        0
H       33.92770000      10.14590000      13.86700000        0
C       32.11960000      12.66940000      25.72530000        1
C       31.25900000      12.95580000      24.76630000        1
C       31.13760000      14.26530000      24.22210000        1
C       31.82980000      15.30000000      24.76550000        1
Cl      31.94440000       3.53745000       7.98305000        0
Cl       5.28466000       9.59810000      25.49350000        0
C        0.35135500      14.71330000       7.06656000        0
C        1.25859000      15.62920000       7.43844000        0
C       37.58410000       6.86379000       0.37086800        0
C        0.31772800      13.13480000       7.28534000        0
H        1.07669000      12.51290000       7.83763000        0
H        0.53110000      15.01750000       9.65144000        0
C       33.23540000       8.26607000      10.82160000        0
C       34.16510000       9.17016000      10.91950000        0
C       34.62130000      10.28660000      10.59750000        0
C       35.34700000      11.42830000      10.63040000        0
Cl      32.03080000       9.31836000      13.50090000        0
H       34.61700000      11.21650000       5.73720000        0
H       36.43430000      11.15230000      10.46180000        0
C        0.73274500      17.21140000      18.16960000        0
C       39.57740000      17.55720000      18.01800000        0
C       39.11270000       7.57618000      12.57340000        0
C       37.74310000       7.56189000      13.15720000        0
Cl       1.99498000      17.06220000      17.12340000        0
H       39.30670000      16.74270000      18.76900000        0
H       29.94900000      10.88240000      13.21670000        0
H       37.77870000       6.76932000      14.09760000        0
C       36.93520000      14.62980000      21.33240000        0
C       36.61300000      15.94160000      20.85610000        0
C       35.32340000      16.16940000      20.33040000        0
C       34.44200000      17.34790000      20.80020000        0
Cl      37.87130000      18.27500000      13.98860000        0
Cl      34.67240000      14.83730000      19.61390000        0
H        2.30766000      21.97330000      10.77440000        0
H       33.22530000      17.37050000      20.74550000        0
C       38.54610000      20.28550000      21.79820000        0
C       39.18870000      20.80030000      22.78160000        0
C       37.08530000      20.67150000      19.74880000        0
C       37.74930000      20.94250000      20.92540000        0
Cl      38.87430000      18.39950000      21.48660000        0
Cl      38.56560000      14.64230000      22.10220000        0
C       32.43390000      14.93450000      25.99890000        1
C       33.39350000      15.42280000      26.80890000        0
C       33.98710000      16.76020000      26.94331814        1
C       34.62040000      17.28540000       1.17083000        1
H       34.95230000      16.65120000       2.03424000        0
C        0.98289800      19.21840000       5.84995000        0
C       39.02640000      26.07470000       4.87259000        0
C        1.22711000      17.32560000       7.27187000        0
C        0.89565800      17.85290000       6.11167000        0
Cl      39.68990000      19.87010000       5.17491000        0
H        0.81555100      17.30140000       5.17014000        0
C       34.99000000      12.81740000      10.99330000        0
C       35.91230000      13.59000000      11.80010000        0
C       35.64050000      14.90600000      11.52760000        0
C       34.75080000      15.00300000      10.29520000        0
Cl      37.32700000      20.69670000       6.99816000        0
Cl      36.02370000      16.30410000      12.39300000        0
H       35.89940000      13.16400000      12.86820000        0
H       34.45990000      15.93880000      10.20950000        0
C       37.18740000      19.05410000      15.49670000        0
C       35.92440000      19.44320000      15.33010000        0
C       38.80240000      18.55990000      17.23790000        0
C       37.88530000      18.79250000      16.56790000        0
Cl      31.21480000      15.48010000      10.21970000        0
H       28.74380000      16.78060000      15.23530000        0
C        3.63382000      21.03930000      15.06010000        1
C        4.50264000      20.76070000      16.14040000        1
C        4.15396000      20.99620000      17.33620000        1
C        2.99580000      21.67060000      17.93120000        1
Cl       7.89527000      13.88590000      20.90940000        0
H        8.96874000      10.57520000      19.23450000        0
H        2.66892000      21.87570000      18.92150000        0
C        2.83066000      19.43980000      21.40670000        0
C        6.99597000      23.13300000      17.55430000        0
C        4.80922000      20.03910000      23.05460000        0
C        3.46510000      20.24060000      22.20870000        0
Cl       1.69596000      19.88380000      20.24130000        0
Cl       3.04702000      17.59680000      21.34180000        0
Cl       6.61747000      20.10880000      24.96540000        0
H        8.02003000      23.06160000      17.21580000        0
H        3.78085000      23.53090000      25.65700000        0
H        2.85392000      21.11530000      22.53570000        0
C        3.60357000      18.54490000       1.76894000        0
C        3.15014000      19.10660000       3.09839000        0
C        4.03646000      19.81420000       4.14508000        0
C        5.44688000      19.16030000       4.69197000        0
Cl       5.01925000      19.06790000       1.17580000        0
Cl      37.65330000      20.94890000       2.86734000        0
H       12.28030000      17.63090000      22.19430000        0
C        2.61535000      22.41640000       5.63406000        0
C        2.65270000      23.80490000       5.68566000        0
C        2.08254000      19.93080000       6.06082000        0
C        2.18363000      21.23270000       5.73179000        0
Cl       6.35745000      20.08480000      10.48430000        0
Cl       1.00413000      27.39110000       6.26189000        0
H        1.72536000      24.07010000       6.32592000        0
H       36.46530000       0.29687300       6.29931000        0
H        4.40172000      23.95390000       4.38454000        0
C       39.56720000      24.01890000       8.21235000        0
C       39.31810000      25.29410000       8.56723000        0
C       39.86400000      26.27340000       9.42518000        0
C       39.42430000      27.53920000       9.50139000        0
Cl       0.93204100      23.55690000       8.73530000        0
Cl      11.29240000       0.23771600      10.27480000        0
C        3.38376000      19.33480000      12.28290000        0
C        3.34447000      18.85380000      10.85030000        0
C        2.59778000      17.37410000      14.01760000        0
C        3.01353000      18.53880000      13.67970000        0
Cl       8.58762000      21.08540000      12.53590000        0
H       35.35940000      20.50920000      11.49760000        0
H        2.59714000      19.39390000      14.38160000        0
C        2.25660000      22.37140000      17.01740000        1
C        2.71379000      22.04720000      15.66470000        1
C        2.86692000      22.69860000      14.34330000        0
C        2.96300000      23.99500000      13.90150000        0
Cl       1.44054000      23.86960000      17.16990000        0
H       13.75180000      12.07730000      19.05880000        0
H       39.75860000      21.74410000      14.42590000        0
C       38.24020000       0.79608700       4.31757000        0
C       37.73280000       1.63908000       3.49282000        0
C        6.49480000      23.99800000      18.53980000        0
C       38.48290000      28.95990000       5.15601000        0
Cl      38.22770000      28.75900000      24.76300000        0
Cl       4.70129000      24.31750000      18.69530000        0
H        4.37964000      20.90020000       3.96230000        0
H       38.10280000      14.65180000       1.83782000        0
C        6.56335000      20.04930000       4.60881000        0
C        7.11502000      21.18720000       4.63862000        0
C        8.08960000      22.28870000       4.31735000        0
C        9.27088000      21.94480000       4.02632000        0
Cl       1.99431000      22.27450000      24.57340000        0
H       13.01580000      25.83120000       0.34969400        0
H       10.19160000      19.76080000       4.70232000        0
C        3.37299000      26.44100000       3.83246000        0
C        3.15250000      27.94360000       3.76204000        0
C        3.59030000      24.59100000       5.08596000        0
C        3.69574000      25.96460000       5.02714000        0
Cl       2.44002000      25.38820000       2.69233000        0
Cl       5.47825000      22.24480000      12.92940000        0
H        2.40604000      28.42720000       3.09876000        0
H        4.00440000      26.52370000       5.79467000        0
C       39.77420000      28.89130000       9.89614000        0
C        0.70165600       0.39174500      10.50890000        0
C        0.35242900       1.77805000      10.76280000        0
C        0.16183100       2.82975000       9.88979000        0
Cl       0.61221600      22.99650000      12.27910000        0
Cl      37.00970000      26.77150000      11.34560000        0
Cl       2.61799000      28.71410000       8.24431000        0
H       12.79340000      23.59330000       0.78433600        0
H        0.67662100       4.27627000       8.63053000        0
C        6.04377000      22.45680000      11.31640000        0
C        5.79442000      23.74330000      10.65830000        0
C        3.03799000      20.05530000      10.22650000        0
C        6.57293000      21.66910000      10.30780000        0
Cl      34.24440000      24.74310000      11.74370000        0
Cl      38.22000000      13.12010000      18.36420000        0
H        6.67997000      22.25510000       9.38207000        0
H        3.50210000       0.76102600       4.17811000        0
C        3.14005000      25.22220000      14.18010000        0
C        3.77726000      26.45850000      14.41810000        0
C        3.79284000      27.30740000      15.48420000        0
C        4.26778000      28.62170000      15.65870000        0
Cl       2.79996000      27.09740000      16.91660000        0
C       39.04700000       2.36732000      26.48100000        0
C       40.03550000       2.64838000       0.17620300        0
C       37.40360000       1.10323000      25.12680000        0
C       37.93690000       2.27035000      25.68410000        0
H        5.80074000      28.01620000      22.88660000        0
H       37.55040000       3.25150000      25.62760000        0
C       10.27630000      22.88630000       3.96527000        0
C       10.49040000      24.37590000       3.64512000        0
C       10.66760000      25.69820000       3.15189000        0
C       10.10510000      26.71180000       3.91571000        0
H        9.98546000      26.41890000       4.95751000        0
C        5.14126000       1.09676000       6.04391000        0
C        4.82226000       2.04768000       6.80283000        0
C        4.00475000      28.95250000       4.26999000        0
C        4.91996000      29.04280000       5.37087000        0
Cl       4.06331000       3.72857000       4.72193000        0
H        3.95333000      27.10000000       9.34199000        0
C        0.01953212       3.49121000       8.82008000        0
C       38.98870000       3.66194000       7.90650000        0
C       38.60120000       4.88334000       7.24738000        0
C       38.69570000       6.34167000       7.27835000        0
H       38.15440000       7.18287000       6.91706000        0
C        4.45557000      27.06770000      10.48670000        0
C        3.18669000      10.08770000      11.92900000        0
C        4.87025000      24.61110000      11.05630000        0
C        5.16380000      26.24510000      11.02580000        0
Cl       6.55374000       6.32136000       9.01910000        0
Cl      39.64390000      24.95530000      14.00150000        0
Cl       3.21108000      24.60200000      10.97410000        0
H        3.75144000      10.91620000      11.70650000        0
H        6.07802000      21.91190000       6.70747000        0
C        4.64125000       0.31516900      14.65480000        0
C        4.84492000       1.27736000      13.94060000        0
C        4.75048000       2.52824000      13.00200000        0
C        4.39012000       3.83447000      13.44980000        0
Cl      12.00890000       4.45607000      12.01990000        0
Cl       7.49371000       0.21510200       0.25994100        0
Cl       8.25314000      21.63890000      21.26650000        0
H        5.03685000       2.11368000      11.98740000        0
H        4.41905000       4.25837000      12.28990000        0
C        1.59033000       5.54335000       0.41436400        0
C        1.73089000       6.61946000       1.23246000        0
C        0.97144600       3.06157000       0.80675800        0
C        1.68718000       4.19410000       1.04182000        0
Cl      39.25000000       7.88884000      16.63080000        0
H        2.35030000       4.26312000       2.18949000        0
C       10.01980000      27.98270000       3.78257000        0
C       39.30690000       9.61632000      17.28780000        0
C       39.53000000       9.48914000      18.67780000        0
C       38.85500000       9.83462000      19.83650000        0
Cl       9.70985000       0.33750000       4.83906000        0
Cl      10.37920000      28.63540000       2.20525000        0
Cl      30.14660000       4.78905000      26.47570000        0
H        0.01384170       9.93051000      16.60570000        0
H        6.51266000      28.41340000      24.58230000        0
C        4.44972000       6.33611000       6.39699000        0
C        3.47834000       7.36774000       7.12547000        0
C        4.34578000       4.17929000       7.73911000        0
C        4.82133000       5.28148000       7.19485000        0
Cl       3.65660000       5.31719000      10.87630000        0
H       39.53160000      12.73580000       0.51902600        0
H        5.88899000       5.08556000       6.81955000        0
C       39.60790000       7.08939000       8.11491000        0
C       40.11450000       8.32537000       7.72631000        0
C       39.32460000       9.06267000       6.44161000        0
C       38.81710000      10.42540000       6.64801000        0
Cl       5.26466000       7.13156000       5.30935000        0
Cl       0.96505400       6.53986000       9.12624000        0
Cl       0.77709800       6.27987000       2.92204000        0
H        0.98073400       8.31776000       7.80632000        0
H        8.89168000       1.71504000      10.27720000        0
H       38.23930000      11.06150000       5.80276000        0
C       39.81460000       8.73590000      12.52800000        0
C       38.94490000       9.59416000      13.19790000        0
C        1.73628000      10.36420000      12.09170000        0
C        0.81973500       9.04459000      11.95440000        0
Cl       0.02529810      14.32720000      10.76040000        0
Cl       4.40170000      28.76970000      10.99910000        0
H        1.11404000       8.52579000      11.19220000        0
C        3.92064000       4.24899000      14.74990000        0
C        2.97054000       5.05964000      14.69290000        0
C        2.42738000       5.63161000      15.77030000        0
C        2.07248000       6.30465000      16.69300000        0
Cl       4.04569000       3.03195000      16.04120000        0
Cl       2.75760000       3.72044000       7.58389000        0
H        2.77478000       9.63896000      14.15070000        0
C        2.05231000       9.94272000      26.76620000        0
C        2.58027000      11.08670000      26.56240000        0
C        0.84247400       7.76598000       0.68773200        0
C        1.51791000       8.89249000       0.30681700        0
Cl       2.46142000       8.58259000      23.40400000        0
Cl       0.53930200      12.13640000      20.35580000        0
H        2.86171000       8.73063000      22.18860000        0
H        5.64763000      10.85710000      25.24090000        0
C       38.38490000       9.91446000      21.00690000        0
C       38.66010000       9.70159000      22.39110000        0
C       38.57710000      10.52500000      23.58060000        0
C       37.84100000      11.75480000      23.61790000        0
Cl      36.31740000       6.79996000      12.20110000        0
Cl      39.64530000      14.98990000       5.79975000        0
H       39.52160000       8.96847000      22.45630000        0
H       36.97580000      11.86250000      23.09130000        0
C        3.46093000      10.31420000       5.11480000        0
C        3.19961000      11.44550000       5.89589000        0
C        3.03130000       8.53370000       6.64570000        0
C        3.24703000       8.96924000       5.36701000        0
Cl      39.53140000       9.59181000      24.57240000        0
H       38.01900000       7.76334000       2.17703000        0
H        3.02282000       8.16176000       4.24279000        0
C       38.92960000      11.23150000       7.77898000        0
C       39.23610000      12.71800000       7.47723000        0
C       38.06640000      13.53460000       7.70016000        0
C       37.61690000      14.60390000       7.96623000        0
C       36.01410000      10.91000000      14.27440000        0
C       36.73390000      11.52240000      15.36880000        0
C       37.67120000       9.11498000      13.34490000        0
C       36.38540000       9.87141000      13.35070000        0
H        0.46301300       5.90905000      12.12610000        0
H       35.75230000       9.69226000      12.61640000        0
C        1.32040000       7.05632000      17.54630000        0
C        1.04397000       7.84873000      18.30600000        0
C        0.53226500       8.78510000      19.16580000        0
C        1.49859000       9.57357000      20.02890000        0
Cl       3.28486000      11.49410000      21.46600000        0
H        1.75018000       5.45110000      22.06700000        0
H        2.52205000       9.23328000      20.22410000        0
C        2.89087000      14.64350000      24.67960000        0
C        4.06990000      15.30940000      25.05300000        0
C        2.14426000      12.28810000      25.51810000        0
C        2.67398000      13.52320000      25.46740000        0
Cl       1.92109000      14.44680000      23.20160000        0
Cl       4.05765000      11.86120000       0.71917000        0
H       34.93290000      21.67980000      17.95810000        0
C       38.09680000      12.66370000      24.47670000        0
C       39.45960000      12.92380000      25.06840000        0
C       39.83400000      14.28960000      25.10600000        0
C        0.08671760      15.36060000      25.17040000        0
Cl      36.87340000      13.98390000      24.78570000        0
Cl       5.81617000      16.77260000       3.42643000        0
H        0.03443212      12.27550000      25.57790000        0
H       35.63480000      17.41550000      25.08630000        0
H        3.38391000      18.56560000      26.10330000        0
C        5.15912000      14.51500000       6.93468000        1
C        4.77015000      15.75550000       6.47402000        1
C        3.59930000      12.58030000       6.35093000        0
C        4.34082000      13.63830000       6.45440000        0
Cl      11.99690000      14.60860000      23.74680000        0
Cl      37.92310000       6.37659000      25.74620000        0
H        2.21844000      15.35980000       7.57254000        0
H        7.31172000      12.75670000       6.66990000        0
C       37.80820000      15.88400000       8.43547000        0
C       38.11950000      16.22220000       9.80608000        0
C       38.41050000      17.50420000      10.23900000        0
C       38.55870000      18.64430000       9.43625000        0
Cl      37.96980000      16.85410000       7.10940000        0
H       37.81040000      15.48090000      10.58610000        0
H        7.84148000       9.96142000       7.64751000        0
H       38.80390000      17.77880000      11.31370000        0
C       39.03860000      13.94630000      16.08640000        0
C       40.09850000      13.25490000      15.70070000        0
C       37.28080000      12.43920000      16.01310000        0
C       37.81880000      13.56650000      16.73560000        0
Cl      39.22160000      15.44460000      15.29140000        0
Cl       6.38649000      15.43870000      17.75970000        0
Cl       1.05101000      11.89360000      12.53650000        0
H       37.24350000      14.49820000      16.80520000        0
C        1.74437000      11.00440000      20.56820000        0
C        2.79684000      21.08100000      11.10570000        0
C        3.04844000      20.74680000      12.46750000        0
C        3.19340000      21.40940000      13.66580000        0
H        5.64377000       8.17533000      22.52700000        0
H        6.05941000      15.64630000      12.42620000        0
C        5.32581000      15.25140000      22.42240000        0
C        4.93124000      20.32900000      24.33870000        0
C        4.71498000      16.37780000      24.49990000        0
C        5.22417000      16.43730000      23.17090000        0
Cl       5.36614000      15.47220000      20.48600000        0
Cl       5.81924000      13.59830000      22.73940000        0
Cl       5.71806000      17.51300000      25.60620000        0
H        5.83327000      17.34670000      22.70050000        0
C        0.78023000      16.26620000      25.98270000        0
C        1.63927000      17.38260000      25.74290000        0
C        2.51028000      17.99050000      26.60840000        0
C        2.49160000      18.31430000       0.93153700        0
Cl       0.13341500      16.22620000       0.67476700        0
Cl      36.08360000       6.30882000       0.60904900        0
H        7.79257000      20.11140000       2.91153000        0
H        1.64676000      17.83200000       1.51021000        0
C        4.73358000      18.95370000       6.05703000        0
C        3.64181000      19.54480000       5.53757000        0
C        5.65498000      16.83880000       6.77483000        1
C        5.75259000      18.22540000       6.75971000        0
Cl      11.72880000      25.29550000       6.14361000        0
Cl       1.67325000      18.17900000       8.56978000        0
Cl       3.81561000      15.75170000       9.64751000        0
H       38.16930000      26.24500000       4.11316000        0
H        6.63304000      18.66600000       7.35834000        0
C       39.41920000      19.77150000       9.63560000        0
C       39.83660000      20.80770000       8.51803000        0
C       38.86660000      21.50880000       7.69887000        0
C       38.81420000      22.93520000       7.53373000        0
Cl      40.13090000      19.91670000      11.25980000        0
Cl       9.59132000      16.88550000       5.13275000        0
H        0.24983900      21.66740000       8.67825000        0
H        8.38671000      14.68260000       6.92597000        0
H       37.75000000      23.43890000       7.35338000        0
C        2.72005000      14.93680000      13.48410000        0
C        3.24160000      16.19980000      13.56070000        0
C        0.70482500      14.02740000      14.94820000        0
C        1.81907000      14.51540000      14.45770000        0
Cl       3.64114000      13.75570000      12.38410000        0
Cl       0.67126800      12.07020000      16.71740000        0
H       37.86470000      18.68250000       8.64666000        0
H        1.87539000      17.53870000      14.77740000        0
C        7.24066000      10.82040000      20.16360000        0
C        8.51607000      11.36610000      19.78460000        0
C        9.13269000      12.54390000      20.36340000        0
C       10.41830000      12.96360000      20.19770000        0
Cl       5.94699000      11.94420000      18.79910000        0
Cl      12.08910000      20.96740000      26.24990000        0
H       10.57820000      14.05680000      20.31370000        0
C       12.15690000      12.77150000      26.17770000        0
C       13.40700000      13.23080000      26.72930000        0
C       10.94280000      13.41020000      24.38340000        0
C       11.01610000      13.64590000      25.82040000        0
Cl      11.31940000      11.62440000       0.49715300        0
Cl       6.17498000      19.14850000      22.31280000        0
Cl       8.16279000      17.87400000      20.59660000        0
H       13.54790000      14.20570000      26.11340000        0
H        6.62974000      22.32870000      17.10290000        0
H       10.10590000      13.41600000      26.32820000        0
H       11.03290000      14.67460000      26.01240000        0
C       11.32910000      22.24480000       3.29775000        0
C       13.18110000      22.93560000       1.37677000        0
C       12.26070000      23.05930000       2.65330000        0
C       12.00720000      24.27610000       2.87583000        0
Cl      12.38610000      19.69620000       3.10341000        0
Cl      13.50900000       0.20774300       4.82340000        0
H       14.25400000      22.97710000       1.73053000        0
H       12.79480000      10.36520000       3.71069000        0
C       12.22870000       4.05929000       5.20208000        0
C       11.57280000       4.81064000       4.28232000        0
C       12.27300000      17.44310000       7.64514000        0
C       10.90130000      17.61920000       7.73172000        0
Cl      11.28260000       2.76329000       5.99545000        0
Cl      13.95800000       4.02729000       5.62104000        0
Cl      13.56050000      15.68340000       7.94578000        0
H       10.55610000       4.62692000       3.97008000        0
H       10.29670000      17.55300000       8.65537000        0
H       10.56680000      18.01700000       6.84477000        0
C       10.88450000      24.10670000       7.17553000        1
C       10.65430000      22.75650000       7.16960000        1
C        9.55940000      22.27920000       7.95496000        1
C        8.86756000      23.17600000       8.81122000        1
Cl       5.76882000      16.92310000      12.09200000        0
Cl      11.77700000      16.90900000      13.17600000        0
H        8.10008000      22.41850000       9.46013000        0
C       10.76340000      23.20400000      13.70510000        0
C       11.51320000      24.40600000      14.00770000        0
C        9.44135000      21.09830000      14.16020000        0
C       10.14030000      22.29570000      14.56200000        0
Cl       0.88652800      26.13980000      10.86230000        0
H       11.19550000      25.02280000      14.86720000        0
H        3.53235000      17.63840000      10.28490000        0
H       10.60260000      22.50540000      15.56450000        0
C       11.66010000      12.22410000      20.08620000        0
C       12.73850000      12.72780000      19.10460000        0
C       12.26380000      13.88640000      18.18680000        0
C       12.01910000      15.13210000      18.56900000        0
Cl      11.88050000      10.71390000      20.69700000        0
Cl      12.75240000      15.02640000      21.00960000        0
Cl      12.18950000      13.76820000      16.50060000        0
H       12.08570000      15.50420000      17.59640000        0
C       14.45540000      10.59050000      25.40620000        0
C       14.83230000       9.00915000      25.31400000        0
C       14.29000000      12.34950000       0.22932900        0
C       14.84960000      11.17030000      26.48870000        0
Cl      13.41720000      11.22550000      24.05130000        0
Cl       7.50460000      24.64890000      19.71980000        0
H        3.65279000       5.18574000       4.62669000        0
H       15.65910000      10.55410000       0.02854700        0
C       11.69960000      25.57940000       2.15819000        0
C       11.71490000      25.98540000       0.76390900        0
C        8.49241000      24.66060000      26.90240000        0
C        9.57649000      24.89180000       0.56986400        0
Cl       6.18305000      22.98940000       1.25742000        0
H       15.80240000      24.87790000       2.13454000        0
H        9.85155000      23.96210000       1.07146000        0
C       11.48500000       6.56348000       2.28089000        0
C        5.67012000       2.53012000       0.65898800        0
C       11.97500000       5.97312000       3.45819000        0
C       11.20100000       7.76793000       1.76765000        0
Cl      10.72610000       5.22501000       1.29554000        0
Cl      13.67450000       6.20821000       3.57061000        0
H        5.55548000       3.22514000      26.71370000        0
H        4.59998000      26.62650000       1.72980000        0
H       11.36550000       8.70139000       2.37268000        0
C        9.39000000      24.46870000       8.67831000        1
C       10.42450000      25.02430000       8.13397000        1
C       11.00420000      26.38940000       8.62660000        0
C       10.85390000      27.51230000       8.08208000        0
Cl      11.85440000      26.03070000      10.04290000        0
Cl       9.33008000      20.45220000       8.04327000        0
H       10.86230000      27.18510000       7.03890000        0
C       12.00480000      27.08300000      14.79200000        0
C       11.03290000      28.03380000      14.87370000        0
C       12.69490000      24.91600000      13.67960000        0
C       12.82180000      26.25940000      14.04540000        0
Cl       4.54224000       0.18294900      17.28940000        0
Cl       7.95143000      24.71410000      12.69960000        0
Cl       2.92132000      20.58070000       8.64798000        0
Cl      13.81350000      24.38010000      12.59090000        0
H        8.59029000      25.18800000       9.12766000        0
H        6.00441000      24.13430000       9.70315000        0
H       13.74660000      26.51220000      13.75410000        0
C       11.76690000      15.73290000      19.77360000        0
C       11.36770000      17.01850000      20.24150000        0
C       10.96350000      18.29850000      19.36400000        0
C       10.58960000      19.74650000      19.92790000        0
Cl      10.72550000       4.58209000      19.29810000        0
Cl      11.51480000      18.26620000      17.74510000        0
H       11.09810000      16.86010000      21.18620000        0
H        9.71879000      19.38310000      20.37600000        0
C       12.64980000      19.64060000      22.49510000        0
C       12.97030000      20.83870000      22.85660000        0
C       14.62990000       8.17472000      26.35870000        0
C       12.20750000      18.53830000      22.95290000        0
Cl      15.21230000       6.37108000      26.41970000        0
Cl       5.03531000      20.46980000      18.91450000        0
H       13.25050000      21.84820000       1.08620000        0
H       17.19240000      18.52550000      26.72560000        0
C       10.42990000      25.96580000       0.13549700        0
C       10.12640000      26.81220000      25.88870000        0
C        9.40691000      26.50250000      24.75570000        0
C        8.54823000      26.84020000      23.54440000        0
Cl       5.59343000      23.02290000      22.90660000        0
H       10.69960000      27.59280000      25.58400000        0
H        9.37909000      26.59190000      22.80960000        0
C        7.96975000       4.69178000       1.25622000        0
C        7.49761000       5.56661000       3.52710000        1
C        6.55265000       2.51678000       1.54305000        0
C        7.95922000       3.34470000       1.13175000        0
Cl       7.40254000       2.74560000      23.88660000        0
Cl       6.81581000       1.55677000       2.93382000        0
H        6.97628000       4.57071000       3.25163000        0
H        8.82111000       2.85219000       1.12864000        0
C       10.80500000      28.71630000       8.75784000        0
C        9.67067000       0.19547000       8.36079000        0
C        8.37310000      29.00130000       7.92912000        0
C        7.16735000       0.47976200       8.23559000        0
Cl       5.91159000      20.87090000       7.51051000        0
Cl       8.02037000      27.63980000       6.85678000        0
H        9.75711000       1.28416000       8.27492000        0
H       16.81810000      22.58330000       6.78402000        0
H        6.22596000       0.19854900       8.03953000        0
C        8.72796000       1.11104000      15.18680000        0
C        8.49749000       2.12459000      15.84880000        0
C        9.91862000      28.39220000      14.14830000        0
C        8.83358000       0.00778467      14.48250000        0
Cl      10.70710000       3.89106000      14.99220000        0
Cl       3.81143000       8.53772000      11.54530000        0
Cl       9.80882000      27.17160000      12.97530000        0
H        8.03505000       2.16718000      16.79170000        0
H        4.43559000      26.76790000      13.45750000        0
H        8.10494000       0.07113730      13.68140000        0
C       11.22720000      20.72980000      20.48630000        0
C       10.74070000      21.82770000      21.60200000        0
C        9.68038000      22.49380000      21.45420000        0
C       40.08800000      26.70550000      26.24280000        0
Cl      12.80320000      20.96970000      19.80520000        0
Cl       9.43368000      24.24050000      21.87390000        0
H       11.37460000      22.70760000      21.46550000        0
H        8.90514000       2.83663000      13.94080000        0
H       39.53630000      25.96390000      25.58740000        0
H        0.85253400      27.08570000      25.97480000        0
C       13.34290000      24.42110000      24.19190000        0
C       12.78600000      25.46910000      23.39280000        0
C       13.23250000      22.06500000      23.28670000        0
C       13.24530000      23.06600000      24.18860000        0
Cl      14.26900000      24.99730000      25.77120000        0
H       12.09690000      26.01010000      23.79840000        0
H       12.91790000      22.39820000      24.99700000        0
C        8.23931000      28.25590000      23.41430000        0
C        7.25024000      28.86670000      24.08200000        0
C        6.73214000       0.91744900      24.10690000        0
C        5.44130000       1.12313000      24.29460000        0
Cl       8.19277000      28.77760000      21.67400000        0
Cl      14.29900000       4.13421000       1.23943000        0
H        4.92089000       2.09977000      24.32240000        0
C        7.69474000       8.14036000       4.50565000        1
C        7.79119000       7.99357000       3.04048000        1
C        7.88962000       5.77913000       4.92840000        1
C        8.17395000       7.06109000       5.25689000        1
Cl       7.32331000       9.54526000       5.48356000        0
Cl       4.25696000      28.88770000       1.34114000        0
H        5.15198000      27.10560000      25.11900000        0
H        8.36280000       7.52276000       6.26405000        0
C        7.07851000       1.60097000       9.00800000        0
C        7.98593000       2.19539000       9.77883000        0
C        7.57916000       3.36767000      10.40450000        0
C        8.47689000       4.41703000      10.85270000        0
H       38.51010000       2.73195000       7.59644000        0
C        7.98851000       5.14594000      16.23150000        0
C        7.64765000       6.44452000      16.70130000        0
C        8.88239000       3.33890000      14.93110000        0
C        7.79130000       4.31597000      15.09690000        0
Cl       6.17155000       7.06766000      14.34700000        0
H       39.71060000      10.38300000      13.62580000        0
H        7.28811000       4.48802000      14.33520000        0
C       39.78800000      27.06670000       0.57177700        0
C        1.34208000       1.85101000      18.85550000        0
C        0.84780900       2.97289000      19.16510000        0
C        1.30171000       4.04367000      20.20910000        0
Cl      38.82420000      25.89340000       1.47048000        0
Cl      40.10950000      28.72560000       1.30423000        0
Cl      39.91410000       3.64788000      17.82620000        0
H        2.39960000       1.64267000      19.22980000        0
H       10.09460000       9.14283000      19.37380000        0
H        0.53659800       4.39571000      20.76450000        0
C       11.63820000      28.30930000      21.79630000        0
C       11.32120000      28.74850000      23.11750000        0
C       12.49160000      25.71960000      21.95420000        0
C       12.08840000      26.88240000      21.29910000        0
Cl      33.69370000       7.43078000      26.62480000        0
H       12.26190000      27.01720000      20.25140000        0
C        4.55052000       0.21961400      24.93440000        0
C        4.44370000      28.08970000      25.25410000        0
C        3.33870000      27.55480000      26.22520000        0
C        3.16394000      27.77030000       0.56418600        0
Cl      25.30810000       4.91555000       2.92134000        0
Cl       2.88403000      25.86740000      25.07970000        0
H       19.20130000       3.84345000       4.20750000        0
H        2.11323000      28.02630000       1.33504000        0
H        3.33582000       7.16037000       8.36745000        0
C        7.74040000       6.85035000       0.00192955        0
C        7.67641000       8.18873000      26.60910000        0
C        7.71853000       6.53930000       2.58110000        1
C        7.72555000       5.99037000       1.17257000        0
Cl       7.21974000       5.48466000      25.83170000        0
C        8.25956000       5.66085000      11.13770000        0
C        8.65449000       6.85443000      11.68570000        0
C        8.03738000       8.07734000      11.53850000        0
C        7.47284000       8.55799000      10.14410000        0
Cl      10.38890000       7.71350000       9.27581000        0
H        5.16593000      28.14780000       5.88539000        0
C        6.82961000      10.19410000      15.52680000        0
C        8.04572000      10.82730000      15.64460000        0
C        6.78180000       7.34575000      15.93710000        0
C        6.84146000       8.75052000      16.22980000        0
Cl       5.68729000      11.30060000      14.54420000        0
Cl      12.66690000       6.48298000      14.39580000        0
H        7.26902000       8.76348000      17.19600000        0
C        2.40159000       3.57136000      21.25490000        0
C        2.57529000       4.72152000      22.08670000        0
C        3.77164000       4.91866000      22.89960000        0
C        4.41946000       6.12741000      22.69980000        0
Cl       3.28574000       2.19796000      21.13300000        0
Cl       3.68585000       4.13996000      24.47600000        0
H        9.07372000       5.15276000      23.68230000        0
C       10.87540000       2.29732000      25.48730000        0
C        8.22458000       8.19054000      25.23660000        0
C       11.07030000       0.40446300      23.98320000        0
C       10.92210000       0.90912000      25.27350000        0
Cl      10.99210000       2.67709000       0.11053200        0
Cl      11.12240000       3.37972000      24.19740000        0
Cl       0.79580400       2.87351000       2.63795000        0
H        4.58887000      15.05080000      25.88350000        0
H       10.63480000       0.57826900      26.16730000        0
C        6.92789000      14.61250000       1.22009000        0
C        5.64449000      14.78500000       1.62566000        0
C        5.02612000      15.14060000       2.94345000        0
C        3.98165000      14.95090000       3.58643000        0
Cl       8.19173000      15.04440000       2.21325000        0
Cl      18.97630000       7.97644000       0.39854100        0
Cl       7.13843000      14.28580000      26.58540000        0
H        4.68633000      14.84880000       0.85847100        0
H       15.17040000      10.88350000       9.82654000        0
H        3.47312000      15.84900000       3.93110000        0
C        8.17850000      10.37040000       2.48570000        0
C        9.44153000      10.68940000       2.85366000        0
C        7.72409000       9.09881000       0.64293600        0
C        7.74028000       9.10896000       2.17565000        0
Cl       7.01006000      11.53750000       2.54345000        0
Cl       8.60109000      10.55740000      26.85980000        0
H       10.27800000      10.07440000       2.46613000        0
C        7.13908000       9.22952000       9.10791000        0
C        6.95294000      10.37600000       8.43817000        0
C        6.47263000      11.60800000       8.38875000        0
C        7.02880000      12.86620000       7.66571000        0
Cl       7.51129000       9.20595000      12.75660000        0
Cl       5.10157000      11.78600000       9.18595000        0
H       11.42960000       9.88085000       8.50215000        0
H        8.06232000      13.04780000       7.84007000        0
C        7.69789000      14.62400000      15.51560000        0
C        7.34832000      15.62460000      16.36430000        0
C        8.26933000      12.26480000      15.71670000        0
C        7.44949000      13.22650000      15.87940000        0
Cl       8.43683000      14.78000000      13.97020000        0
H        6.52092000      13.02560000      16.26280000        0
C        4.39996000       6.98218000      21.54020000        0
C        5.30588000       8.15248000      21.59350000        0
C        5.51023000       9.29560000      20.60820000        0
C        6.50577000      10.17730000      20.99830000        0
Cl       4.04538000       6.56390000      19.90940000        0
Cl       4.75698000       9.34997000      19.14980000        0
H       14.37410000       4.79069000      20.03740000        0
H        6.83855000       9.91881000      21.97180000        0
C        9.78464000      11.03360000      23.75630000        0
C       10.69660000      12.17400000      23.64740000        0
C        9.22975000       9.04103000      24.84530000        0
C       10.19780000       9.80457000      24.40350000        0
Cl       7.96681000      11.53680000      23.33940000        0
H       10.38180000      12.82010000      22.76610000        0
H        4.10354000      20.98440000      24.99070000        0
H       11.19970000       9.73444000      24.76510000        0
C        9.23662000      19.09810000       1.61711000        0
C        8.79472000      19.73060000       2.75425000        0
C        9.90674000      20.49250000       3.80167000        0
C       11.28890000      20.82410000       3.28605000        0
Cl       8.46466000      18.83440000       0.22438200        0
Cl      10.29610000      17.77390000       1.83035000        0
C       13.59830000      18.68020000       5.96392000        0
C       12.92020000      17.68920000       6.47331000        0
C        9.94030000      11.84820000       3.44125000        0
C       10.19110000      13.04470000       3.44723000        0
Cl      15.08000000      19.10630000       5.14948000        0
Cl      13.73540000       8.57729000       4.76824000        0
Cl       3.18020000       9.74712000       8.06003000        0
Cl      12.34740000      13.60110000      11.67980000        0
H       13.37390000      16.80430000       5.89720000        0
H       10.64630000      13.76090000       3.92719000        0
H       13.37490000      11.83790000       2.61532000        0
C        6.52150000      14.24550000       7.39595000        1
C        7.48755000      15.19920000       6.95905000        1
C        7.03667000      16.40070000       6.36691000        1
C        7.90375000      17.12370000       5.45783000        0
Cl       8.37220000      13.26540000      10.36690000        0
H       10.70290000      12.29190000      12.03730000        0
H        7.72583000      17.93750000       4.77623000        0
H       11.14580000      21.91250000       6.56418000        0
C        9.00002000      18.67130000      15.29470000        0
C        9.13635000      19.86850000      14.70570000        0
C        7.59828000      17.05550000      16.26390000        0
C        8.84280000      17.44940000      15.92330000        0
Cl       6.43097000      18.21830000      16.70630000        0
H        4.20468000      16.53620000      13.36740000        0
H        9.82379000      16.85690000      15.69840000        0
C       13.77360000       7.27386000      18.38790000        0
C       14.98470000       7.83542000      18.59850000        0
C       10.65540000      21.69770000      26.14590000        0
C        9.82060000      21.69940000       0.34036800        0
Cl      12.55150000       8.89848000      18.01950000        0
Cl      13.77350000       6.24902000      21.46030000        0
Cl      16.95240000      13.12430000      18.21250000        0
Cl      10.52840000      22.75950000      24.45070000        0
H       14.85470000       8.90113000      18.60930000        0
H        9.01645000      22.19900000       0.36271700        0
H        9.97264000      21.23430000       1.23100000        0
C       17.14220000      13.96110000      19.70490000        0
C       17.87220000      15.01430000      20.10070000        0
C       16.02820000      11.92490000      20.79650000        0
C       16.15280000      13.36400000      20.70300000        0
Cl      15.33520000      10.74970000      19.38600000        0
H       18.97880000      14.83350000      19.77730000        0
H       16.22240000      13.62400000      21.92060000        0
C       14.83050000      10.89520000       3.98694000        0
C       13.46500000      11.23470000       3.64791000        0
C       14.34070000      28.08120000       4.19386000        1
C       14.83770000      26.95170000       4.92829000        1
Cl      12.90080000      20.06400000       6.83490000        0
Cl      10.49830000       8.10146000       0.11965200        0
H       17.74440000      18.11720000       6.39225000        0
H       14.37350000      26.95520000       6.02723000        0
C       17.12530000      20.57220000      10.28950000        0
C       17.20260000      21.67340000      11.16780000        0
C       16.92240000      18.66010000       9.05601000        0
C       16.45480000      19.31790000      10.32740000        0
H       16.55580000      21.84170000      11.98210000        0
H       15.59250000      18.87180000      10.84650000        0
C        9.55942000      16.28200000      10.63180000        0
C        9.89701000      17.57360000      11.10370000        0
C       11.04850000      17.96500000      11.85710000        0
C       11.83100000      19.02070000      11.26570000        0
H        9.41254000      18.42610000      10.78830000        0
H       20.32080000      16.75600000      13.48360000        0
H       11.17570000      19.32670000      10.40130000        0
C       16.29110000      20.56900000      15.34090000        0
C       16.00350000      21.77390000      14.95680000        0
C       15.03750000      18.30980000      15.81390000        0
C       15.53720000      19.67700000      16.32740000        0
Cl      17.49490000      19.75650000      14.51420000        0
Cl      13.66470000      18.20680000      14.61790000        0
H       15.69200000      20.02290000      17.34580000        0
C       12.21380000      24.60750000      17.35960000        0
C       11.81700000      25.86750000      17.69390000        0
C       10.65250000      26.49400000      17.28990000        0
C       10.67510000      27.92200000      17.22290000        0
Cl      11.23960000      23.15090000      17.55370000        0
Cl      18.13290000      24.18190000      24.69810000        0
Cl      18.86230000      17.96200000      24.21390000        0
Cl       9.27752000      25.57440000      17.02620000        0
H       21.41690000      17.11880000      21.62030000        0
H       11.53420000      28.52500000      17.18720000        0
C       15.75190000      17.87650000      21.02610000        0
C       15.64090000      19.29090000      21.42120000        0
C       17.47410000      16.11330000      20.72030000        0
C       16.72860000      16.81230000      21.51950000        0
Cl      14.63960000      17.34850000      19.68790000        0
Cl      15.96830000      14.37280000      23.71950000        0
H       16.39620000      16.09450000      22.71730000        0
C       15.07840000      25.75810000       4.14964000        1
C       15.37080000      25.69930000       2.82384000        1
C       15.11380000      26.90480000       2.05011000        1
C       14.65930000      28.05810000       2.77608000        1
H       20.11120000      21.90500000       9.77184000        0
H       14.28850000      28.92970000       2.40842000        0
C       14.76470000       0.45033000       9.32725000        1
C       14.68150000      28.29440000       9.92489000        1
C       16.41920000       1.22549000      10.68270000        1
C       15.60600000       1.55733000       9.63491000        1
Cl      14.30450000       0.70146200       7.66590000        0
Cl      17.34830000       2.58637000      11.50220000        0
H       14.25420000      27.39350000       9.42214000        0
H        4.52130000       2.53204000       0.89674700        0
H       15.44850000       2.42392000       8.96005000        0
C       13.05750000      19.73950000      11.19330000        0
C       13.47050000      20.50620000      10.06450000        0
C       14.28730000      20.85840000       9.16428000        0
C       15.24220000      21.30450000       8.36165000        0
Cl      14.29690000      19.72810000      12.32140000        0
Cl       3.30169000      13.26920000       3.31302000        0
H        3.47192000      15.88320000       5.95143000        0
H       22.75940000      22.64620000      14.89100000        0
H       16.30360000      20.79230000       7.95246000        0
C       13.60400000      24.43670000      16.95150000        0
C       14.18100000      25.68500000      17.38860000        0
C       14.85740000      22.48560000      15.60860000        0
C       14.80540000      23.38670000      16.55010000        0
Cl      16.49710000      24.01210000      16.61250000        0
Cl      10.40570000      23.03730000      11.83380000        0
Cl      13.25080000      21.88500000      15.36670000        0
H       15.19980000      26.07440000      17.39670000        0
H       11.16380000      28.90700000      15.55580000        0
C        9.81578000      28.79110000      17.97920000        0
C       10.33710000       1.00213000      18.93980000        0
C        9.37039000       1.68400000      19.71680000        0
C        8.08752000       2.35330000      19.25460000        0
Cl       7.85709000      28.90800000      17.94530000        0
Cl      15.00490000      27.95780000      22.21180000        0
H       10.36500000       1.93471000      18.26090000        0
H       14.41430000      19.11850000       1.12382000        0
H        7.28836000       2.27685000      20.05490000        0
C       16.05590000      22.36950000      22.89380000        0
C       15.96720000      23.72280000      22.91150000        0
C       15.77180000      20.56610000      21.10660000        0
C       15.40980000      21.74850000      21.77070000        0
Cl      16.43400000      21.85830000      24.34220000        0
Cl      12.89230000       2.70335000      21.45930000        0
Cl      14.05740000       8.90589000       1.11193000        0
H       15.00510000      22.43790000      20.94780000        0
C       16.02160000      27.26190000       1.01451000        0
C       16.14920000      28.67200000       0.36159400        0
C       14.93030000       0.33234900       0.34795100        0
C       14.60570000       1.70039000       0.80365900        0
Cl      17.27510000      26.17670000       0.53755400        0
Cl      18.67040000      23.83150000       4.40703000        0
Cl      13.54680000      28.24740000      26.58190000        0
H       22.18870000      25.91310000       9.03766000        0
H       13.50030000       1.57694000       1.04885000        0
C       18.09800000       0.56906400       8.20364000        0
C       17.55770000       1.73639000       7.69691000        0
C       15.80200000      28.08960000      10.68280000        1
C       16.72400000      29.11943223      11.22800000        1
Cl      19.94910000       0.27686700       8.54689000        0
Cl      15.67370000      26.16640000      10.98350000        0
H       16.50330000       1.98131000       7.29976000        0
H       17.38290000      28.81740000      12.04950000        0
C       14.95280000      22.51610000       7.87005000        0
C       15.79140000      22.92030000       6.68596000        0
C       15.53230000      24.21550000       6.20569000        0
C       15.29910000      24.66390000       4.94237000        0
Cl      13.38790000      22.86750000       8.07455000        0
Cl      15.66590000      25.71910000       7.47233000        0
H       15.35720000      23.68920000       4.39492000        0
C       13.40620000      28.91460000      18.81600000        0
C       13.07600000       1.11840000      19.04220000        0
C       13.23190000      26.65850000      17.74190000        0
C       13.64960000      27.83310000      18.29370000        0
Cl      14.29320000       5.73596000       9.94946000        0
C        8.02146000       3.69731000      18.82000000        0
C        9.19093000       4.40410000      18.34850000        0
C        9.25970000       5.39633000      17.24000000        0
C        8.79074000       6.76583000      17.35610000        0
Cl       6.42292000       4.22464000      18.52060000        0
Cl      21.85600000      24.87880000      22.58850000        0
C       17.57230000      27.14690000      23.90350000        0
C       17.22680000      28.51020000      24.04190000        0
C       16.89800000      24.72900000      23.65600000        0
C       16.69000000      26.17480000      23.67810000        0
H       17.85140000       0.27567000      24.27740000        0
H       15.52690000      26.15960000      23.30100000        0
C       15.38190000       2.61107000       1.37850000        0
C       16.70990000       2.99046000       1.47455000        0
C       17.86030000       3.37734000       1.51156000        0
C       19.19980000       3.28646000       1.42030000        0
H       17.14220000      29.02750000       0.63269100        0
H       21.13930000      28.11100000       5.28612000        0
H       19.44590000       2.49202000       0.60812000        0
C       20.46590000       3.22885000       8.79564000        0
C       17.29020000       4.14693000       7.45107000        0
C       18.11320000       2.97621000       7.57670000        0
C       19.72430000       3.78102000       7.76342000        0
Cl      20.37800000       3.36114000      10.69460000        0
Cl       8.03640000       4.65146000       6.07346000        0
H       20.15470000       4.14482000       6.85885000        0
C       13.88470000       2.00318000      12.41270000        0
C       13.33610000       2.35872000      11.18610000        0
C       13.06700000       3.64012000      10.67160000        0
C       12.41420000       4.14481000       9.49310000        0
Cl      14.79360000       3.20904000      13.37750000        0
Cl      14.08370000       0.52999700      13.02510000        0
H       13.84560000       1.55511000      10.60510000        0
H       16.54760000       1.27033000      18.64370000        0
C       11.43460000       1.49288000      21.13540000        0
C       10.14290000       2.12085000      20.84260000        0
C       11.73270000       0.92148100      19.78320000        0
C       11.92370000       0.14577400      20.93050000        0
Cl      10.58890000       3.63994000       9.10527000        0
H        9.61456000       2.79971000      21.51180000        0
C        9.67661000       7.81004000      17.77780000        0
C        9.89385000       8.17469000      19.15820000        0
C        9.66463000       7.30159000      20.44370000        1
C        8.58577000       6.42642000      20.46500000        1
Cl      10.44000000       9.14388000      16.55860000        0
H       25.08180000       0.19170000      20.25080000        0
H        7.72632000       6.70656000      19.70190000        0
C       15.63490000       2.09067000      22.07400000        0
C       15.50120000       3.41091000      22.26220000        0
C       15.95190000      28.99310000      23.51050000        0
C       15.74490000       1.16778000      22.99030000        0
Cl      13.48840000      24.78280000      20.82870000        0
H       13.64290000       1.97101000      18.89540000        0
C       20.27170000       3.60183000       2.36598000        0
C       20.13400000       3.95064000       3.61144000        0
C       20.94050000       4.61511000       4.50009000        0
C       21.04790000       5.90643000       4.52514000        0
Cl      21.73500000       4.14236000       1.61430000        0
Cl      15.16690000       8.39283000       9.23568000        0
H       22.64110000       1.40259000       1.74552000        0
H       16.88180000       5.20999000       2.99823000        0
C       17.67980000       7.36392000       7.25948000        0
C       17.12640000       8.64062000       7.39878000        0
C       16.75600000       5.29782000       7.72462000        0
C       16.57010000       6.54864000       7.51060000        0
Cl      19.50390000       7.36168000       6.98256000        0
Cl      16.54710000      13.01440000      11.05980000        0
H       15.65570000       7.08585000       7.70990000        0
C       12.68430000       5.23013000       8.79978000        0
C       12.52650000       6.28705000       7.88209000        0
C       11.57470000       7.19369000       7.95257000        0
C       11.32540000       7.81907000       6.77333000        0
Cl      10.05380000       9.60877000       5.01799000        0
H       13.40920000       6.46589000       7.13279000        0
H       17.97740000       2.04405000      13.32000000        0
H       11.45710000       7.16625000       6.10161000        0
C       14.61780000       9.77946000      15.21950000        0
C       13.73230000      11.03390000      14.75280000        0
C       13.44310000       7.93872000      13.69390000        0
C       14.44150000       8.81430000      14.34430000        0
Cl      14.38640000      13.54050000      14.09600000        0
H       12.75080000      11.22200000      14.20920000        0
H        9.02738000      10.15270000      15.51870000        0
C        8.50669000       5.74724000      21.70290000        1
C        9.37519000       5.73514000      22.86380000        1
C       10.43760000       6.55914000      22.61090000        1
C       10.52430000       7.31425000      21.52600000        1
Cl       7.01312000       4.56123000      21.74100000        0
Cl       5.54880000       6.38454000      24.16660000        0
Cl      17.38820000      12.59330000      15.01870000        0
Cl      11.66760000       6.73824000      23.98230000        0
H       21.42010000       3.79747000      23.66590000        0
H       11.39360000       7.89090000      21.18360000        0
C       14.70160000       6.69736000      22.80710000        0
C       14.89760000       8.11169000      22.96060000        0
C       15.41040000       4.32959000      23.07320000        0
C       15.53590000       5.63755000      23.31750000        0
Cl       0.66786700       1.25958000      17.28450000        0
H       14.05160000       8.80901000      22.71220000        0
H        7.62714000       7.59709000      24.50910000        0
H       16.25380000       5.68273000      24.18420000        0
C       21.29900000       7.12015000       4.32563000        0
C       21.04570000       8.34885000       3.99101000        0
C       20.28180000       9.26001000       3.53525000        0
C       18.95440000       9.82533000       3.44121000        0
Cl      17.58400000      12.46440000       5.84984000        0
C       15.41290000      11.38870000       8.83225000        0
C       15.59510000      12.76500000       8.43504000        1
C       15.90280000       9.24120000       8.07328000        0
C       15.74250000      10.56780000       7.78294000        0
Cl      22.12950000       4.27823000       5.88127000        0
H       16.09630000      11.42250000       7.02758000        0
C       10.85890000       9.08289000       6.64919000        0
C       11.11160000      10.12700000       7.50894000        0
C       10.72620000      11.46190000       7.41764000        0
C       10.82070000      12.11080000       8.55248000        0
Cl      16.47630000       6.39165000       2.14798000        0
H       19.98600000       9.17598000       7.91474000        0
H       10.24280000      12.99440000       8.20854000        0
C       15.98830000      10.18570000      15.65210000        0
C       16.93010000       9.31035000      16.22590000        0
C       14.60150000      11.96220000      14.99720000        0
C       16.01850000      11.60090000      15.33330000        0
Cl       9.96097000      12.39350000      15.32140000        0
C       16.37690000       5.07940000      19.00870000        0
C       15.05560000       4.97852000      19.06820000        0
C       14.21080000       5.06306000      17.87660000        0
C       13.25830000       6.02275000      17.92560000        0
Cl      17.37010000       4.62057000      20.27810000        0
Cl      15.51370000       7.02938000      16.01560000        0
Cl      32.10260000      11.77960000      20.46000000        0
H       19.15440000      14.49890000      14.05600000        0
H       15.70800000       7.23910000      19.12050000        0
H       12.45590000       5.74919000      17.12160000        0
C       17.04490000       9.95559000      22.41510000        0
C       16.61280000      11.26020000      21.92370000        0
C       15.55100000       8.74952000      24.17380000        0
C       16.72610000       9.23426000      23.72810000        0
Cl      17.66860000       9.11659000      20.91370000        0
H       11.64340000      11.77530000      23.33150000        0
C       15.30850000      13.41850000       7.19303000        1
C       18.19920000      10.50410000       2.33023000        0
C       16.91740000      11.17930000       2.35240000        0
C       15.72390000      10.91060000       3.05543000        0
Cl      19.42220000      14.36260000       8.70840000        0
Cl      18.01690000       8.52875000       4.19561000        0
H       28.04110000       5.54034000       5.55026000        0
C       16.28790000      16.24860000       9.77275000        0
C       16.79080000      17.23780000       8.83518000        0
C       15.88700000      13.72460000       9.42444000        1
C       16.27980000      14.99880000       9.18735000        1
Cl      12.77430000      12.56980000       4.98353000        0
C       11.00390000      11.80250000       9.88872000        0
C       10.88850000      12.74820000      11.07600000        0
C        9.80742000      14.00220000      10.68540000        0
C       10.37640000      15.16270000      10.61930000        0
Cl      12.01050000      10.42540000      10.42400000        0
Cl      14.87400000      15.69220000      16.20440000        0
H       11.22860000      15.81170000      10.73430000        0
C       19.34940000       6.65601000      17.00840000        0
C       15.29020000      17.24690000      16.56380000        0
C       16.97490000       7.78217000      16.14180000        0
C       18.22560000       7.30238000      16.52320000        0
Cl       7.95048000      16.47410000       9.79222000        0
Cl      20.84380000       6.08597000      15.89060000        0
Cl      23.02990000       6.90117000      22.96110000        0
H       16.98370000       5.01369000      18.14470000        0
C       21.05650000      11.14780000      23.82440000        0
C       22.17340000      11.97590000      23.73310000        0
C       21.69680000      13.16490000      23.13840000        0
C       21.25620000      14.36060000      23.25830000        0
Cl      18.10270000       9.21887000      24.73800000        0
Cl      16.23200000      10.19790000      12.58240000        0
H       32.25980000      12.91910000      20.97400000        0
C       15.46170000      20.70270000       0.65512000        0
C       16.24000000      21.72610000       0.80467200        0
C       16.17440000      18.31850000       0.09159100        0
C       15.49970000      19.34930000       0.65977200        0
Cl      16.31630000      21.08630000       3.47627000        0
H       15.84870000      22.75680000       1.19754000        0
C       16.53470000      15.28310000       7.75964000        1
C       17.02300000      16.53150000       7.56361000        1
C       17.38030000      17.15640000       6.44519000        1
C       18.02300000      19.54290000       8.44566000        0
Cl      18.27830000      13.90870000       3.41625000        0
H       18.66920000      19.40110000       7.61206000        0
C       20.89470000      19.82680000       8.39204000        0
C       22.07850000      19.99700000       9.15329000        0
C       22.71970000      16.51880000       9.15175000        0
C       22.58180000      16.84330000      10.50130000        0
Cl      20.58030000      18.22770000       7.89562000        0
Cl      15.46520000      16.32420000      11.51650000        0
H       17.84390000      22.40810000      11.22050000        0
H       23.27090000      16.21100000      11.11120000        0
C       20.22600000      17.95380000      11.69740000        0
C       20.10130000      17.71120000      13.12070000        0
C       20.48050000      18.96290000      13.97250000        0
C       21.04750000      20.08100000      13.42320000        0
Cl      19.82830000      19.49370000      10.85840000        0
C       21.26600000      20.76820000      17.02060000        0
C       21.51500000      22.12300000      16.64360000        0
C       20.26040000      18.84320000      15.50320000        0
C       20.90760000      20.07060000      15.76110000        0
Cl      20.77940000      20.60580000      19.04960000        0
H       16.21650000      22.48390000      13.82370000        0
H       20.82460000      20.34070000      12.50730000        0
C       20.53540000      15.47480000      22.91010000        0
C       20.73890000      16.86010000      22.59640000        0
C       20.16580000      18.04920000      23.02180000        0
C       20.67930000      19.30290000      22.62750000        0
Cl      18.49490000      15.90450000      10.96470000        0
Cl      25.32820000      22.45380000      16.30440000        0
C       19.74290000      21.73730000      26.32830000        0
C       20.57890000      22.91760000      26.35740000        0
C       17.63080000      21.96030000       0.57820300        0
C       18.32510000      21.29460000      26.76480000        0
Cl      20.42520000      20.41690000      25.33800000        0
H       15.90390000      19.41230000      22.61010000        0
H       18.26670000      20.19580000      26.62630000        0
C       18.03910000      20.75320000       9.04281000        0
C       19.45990000      21.43360000       8.98460000        0
C       19.34100000      22.29000000       7.72567000        0
C       19.82850000      23.71750000       7.71983000        0
H       19.66700000      18.77160000       2.96408000        0
H       20.22410000      24.04290000       6.73633000        0
C       23.98500000      23.28460000       8.77084000        1
C       24.93590000      23.80470000       8.04730000        1
C       22.73860000      21.20810000       9.32087000        0
C       22.95600000      22.40280000       8.43877000        0
Cl      17.49070000      28.29410000       7.93201000        0
Cl      34.17890000      23.14800000       5.55769000        0
C       21.51640000      20.82280000      14.62080000        0
C       21.75860000      22.30950000      15.22280000        0
C       20.96380000      23.41270000      14.51400000        0
C       21.21000000      24.64190000      14.39800000        0
Cl      24.26200000      21.64730000      13.13610000        0
Cl      19.44000000      22.92170000      14.11020000        0
H       23.64590000      24.11420000      12.12740000        0
H       20.27450000      25.08100000      13.94030000        0
C       21.76100000      25.53880000      18.68990000        0
C       22.05720000      26.29630000      17.60190000        0
C       21.45910000      23.16960000      17.51520000        0
C       21.32910000      24.20330000      18.13240000        0
Cl      25.45590000      21.73790000      22.70390000        0
H       21.89340000      26.03450000      19.67520000        0
C       20.79890000      20.56150000      22.31090000        0
C       19.71330000      21.24780000      21.69170000        0
C       19.64910000      22.69900000      20.99040000        0
C       18.66860000      23.19410000      20.47400000        0
Cl      22.32830000      21.21420000      22.68330000        0
Cl      21.11140000      23.24440000      20.78930000        0
Cl      24.01750000      26.17800000      21.77160000        0
H       18.90900000      20.76230000      21.41150000        0
H       24.84470000      27.15700000      18.55390000        0
H       17.61350000      22.71510000      20.42860000        0
C       23.11830000      24.70230000      25.98590000        0
C       22.00940000      25.33340000      26.37060000        0
C       22.14630000      22.68440000      26.40590000        0
C       23.32400000      23.35340000      26.09950000        0
Cl      24.38010000      25.25300000      25.09430000        0
Cl      16.37650000      20.96530000      19.57880000        0
Cl      22.45650000      21.03670000       0.08523400        0
H       21.91250000      25.09330000       0.46845600        0
H       15.98300000      24.33470000      22.02820000        0
H       24.30320000      22.75410000      25.95450000        0
C       20.47250000      24.49730000       8.75934000        0
C       21.40770000      25.42540000       8.26410000        0
C       20.99270000      26.57670000       7.42959000        0
C       19.85570000      26.48930000       6.84481000        0
Cl      26.59950000       2.06460000      19.52030000        0
Cl      20.69510000      24.23640000      10.44970000        0
H       19.24680000      25.81320000       7.41311000        0
C       25.73390000      27.06230000       9.23439000        0
C       25.45590000      27.52860000      10.46700000        0
C       25.36310000      25.18360000       7.87900000        1
C       25.06910000      25.98350000       8.98544000        1
C       19.18790000      26.59760000      16.14100000        0
C       18.31490000      27.55210000      16.76130000        0
C       17.16310000      27.80860000      15.86570000        0
C       16.42150000      28.98920000      15.73980000        0
H       18.46740000      28.25370000      17.45030000        0
H       16.01210000      28.97130000      14.72520000        0
C       22.41270000       1.05676000      18.46940000        0
C       23.23300000       1.65222000      19.29200000        0
C       22.35620000      27.76480000      17.63880000        0
C       22.30640000      28.83090000      18.45410000        0
Cl      21.30190000       1.63755000      17.15830000        0
Cl      20.64730000      28.29310000      13.22930000        0
H       18.74290000      26.03930000      15.35880000        0
H       21.94230000      28.64920000      19.54280000        0
C       18.41320000      24.52540000      20.41690000        0
C       18.26390000      25.77980000      20.56960000        0
C       18.38670000      27.03910000      20.48460000        0
C       18.78990000      28.25650000      20.50530000        0
Cl      20.54220000      27.28910000       0.49943900        0
H       20.02550000      26.32250000      16.80700000        0
C        6.00821000       2.63323000       8.86462000        0
C        5.11255000       2.96977000       7.83478000        0
C       21.53640000      26.67720000      26.29480000        0
C        6.16101000       3.51800000      10.01130000        0
Cl      15.21610000       1.95408000      24.87010000        0
Cl      16.76920000      26.61040000      14.67060000        0
Cl      22.08550000      27.98110000      25.16360000        0
H        5.63657000       4.86380000       9.94559000        0
C       19.44780000      26.88310000       5.54665000        0
C       20.12680000      27.93700000       4.80447000        0
C       19.95350000      28.72960000       3.73875000        0
C       20.84980000       0.45696100       3.05681000        0
Cl      17.78330000      26.57390000       5.04405000        0
Cl      18.41030000      28.48550000       3.00781000        0
H       20.23630000       1.13411000       2.33510000        0
H       22.45600000      29.03680000       4.30143000        0
C       26.72570000       1.98460000      11.81990000        0
C       25.95980000       2.39767000      10.59430000        0
C       26.01650000      28.65660000      11.06520000        0
C       26.70800000       0.44604500      11.78820000        0
Cl      27.46590000       2.81267000      13.13180000        0
Cl      17.27180000       4.93674000       4.82068000        0
Cl      22.67260000      28.69340000       9.09211000        0
H       25.64630000       1.76412000       9.87935000        0
H       27.53950000      28.95740000      12.57990000        0
C       16.14410000       0.97579100      16.49170000        0
C       16.59550000       1.71058000      17.61070000        0
C       17.54700000       2.70090000      17.43410000        0
C       17.93700000       3.63381000      16.52000000        0
Cl      16.20060000       1.10697000      20.56070000        0
C       22.69350000       5.48778000      19.60060000        0
C       21.61600000       5.90543000      20.31680000        0
C       23.19320000       2.96533000      19.43160000        0
C       22.96070000       4.19398000      19.62080000        0
Cl      23.97310000       6.29694000      18.49880000        0
H       21.10060000       5.13779000      20.75320000        0
H        1.81179000       5.04876000      19.94750000        0
C       19.37600000       0.18543700      20.99660000        0
C       20.43110000       0.88111700      21.33470000        0
C       21.47080000       1.17261000      22.22930000        0
C       21.09400000       1.52553000      23.45630000        0
Cl      19.30090000      26.91730000      23.64930000        0
Cl      24.15840000      28.00130000       6.59501000        0
Cl       2.85930000       1.38483000      25.25250000        0
H       23.10070000       5.01918000      24.47760000        0
C       17.27060000      13.75210000       4.67584000        0
C       20.15750000      11.07580000       0.33300100        0
C       17.21180000      16.06730000       5.13304000        1
C       16.78340000      14.85720000       5.47605000        1
Cl      21.50950000      10.26230000       0.79981600        0
H       14.58460000      12.88840000       6.86088000        0
C       22.11650000       0.60835500       3.50393000        0
C       23.02970000       1.25854000       2.76274000        0
C       24.22450000       1.70128000       3.25038000        0
C       25.35600000       2.13198000       3.56338000        0
Cl      17.28160000      17.16210000       3.75465000        0
H       26.42410000       5.38252000       1.18308000        0
C       24.61360000       4.59440000       7.81076000        0
C       24.73200000       5.73013000       7.17912000        0
C       25.99230000       3.87554000       9.89265000        0
C       24.88100000       4.24158000       9.20261000        0
Cl      24.78570000       2.98501000       6.68294000        0
H       17.79620000       9.20522000       6.73950000        0
H       23.99490000       4.10600000       9.92624000        0
C       18.29530000       3.20956000      14.94190000        0
C       18.52090000       2.02897000      14.22680000        0
C       18.40120000       7.44312000      11.36770000        0
C       19.13290000       8.48227000      11.17360000        0
Cl      18.21450000       4.35139000      13.61370000        0
Cl      20.48100000       9.36833000      14.14750000        0
H       18.67440000       1.16612000      14.66640000        0
H       20.53460000       6.91378000      13.23880000        0
H       18.78640000       9.44678000      11.57990000        0
C       22.09560000       9.88156000      20.27060000        0
C       21.01840000      10.61020000      20.60240000        0
C       21.47580000       7.30704000      20.53640000        0
C       22.21380000       8.52797000      20.04020000        0
Cl      13.57010000       7.95223000      12.01080000        0
Cl      20.12060000       7.44238000      21.59340000        0
H       20.37160000       9.90706000      21.34720000        0
H       23.35280000       8.32085000      19.48860000        0
C       20.57420000       2.27684000      24.38660000        0
C       20.54520000       3.77378000      24.32900000        0
C       19.66100000       4.74731000      24.76360000        0
C       19.99080000       6.05381000      24.58730000        0
Cl      20.14200000       1.29485000      26.28590000        0
Cl      24.70340000      11.34890000      26.79650000        0
Cl      17.90570000       4.30069000      25.10300000        0
H       18.01030000       7.55416000      26.63420000        0
C       16.79830000      12.09160000       1.31070000        0
C       15.45310000      12.68040000       0.91698100        0
C       18.99890000      11.05070000       0.99651600        0
C       17.89330000      11.71420000       0.39021100        0
Cl      14.06420000       3.71739000      16.50710000        0
C       26.60040000       2.60370000       3.95540000        0
C       27.19520000       1.80787000       4.96824000        0
C       27.83800000       2.86964000       5.39348000        0
C       27.20460000       3.71929000       4.50160000        0
Cl      22.05770000      16.26250000      26.30470000        0
Cl      28.86160000       3.28887000       6.73211000        0
H       27.15560000       0.70138300       4.96171000        0
H       23.04130000      27.31830000       1.22437000        0
C       23.81000000       9.56645000       7.81183000        0
C       23.35500000      10.60640000       6.91141000        0
C       24.79130000       7.12355000       7.76788000        0
C       23.82590000       8.12311000       7.42534000        0
Cl      24.71930000      10.30920000       9.09094000        0
Cl      25.40260000       7.16248000       9.31963000        0
H       23.24550000       7.75248000       6.41550000        0
C       20.19710000       8.46868000       9.96219000        0
C       19.96840000       9.49280000       9.05584000        0
C       19.67290000      10.86790000       9.11091000        0
C       19.96990000      11.86130000      10.23580000        0
Cl      17.16370000       7.43958000      12.80630000        0
Cl      19.06510000      11.52880000       7.74915000        0
H       21.95500000      11.41390000      14.57920000        0
H       20.82620000      11.70590000      11.03060000        0
C       22.23440000      13.73050000      19.23570000        0
C       22.32080000      14.86080000      19.90200000        0
C       20.81350000      11.79400000      20.03450000        0
C       21.21480000      12.71790000      19.31080000        0
Cl      22.77870000      13.59960000      17.36130000        0
Cl       9.81178000      12.23440000       6.10080000        0
H       21.43080000      14.80180000      20.56420000        0
H       16.36870000      11.56650000      13.02040000        0
C       20.82500000       6.83445000      24.63340000        0
C       21.68690000       7.68390000      23.95340000        0
C       21.69020000       8.99557000      24.55760000        0
C       20.87500000       9.77508000      23.78490000        0
Cl      23.32780000       9.10120000      25.25930000        0
Cl      18.03760000      16.67730000      18.09640000        0
H       19.89360000       9.15584000      23.63900000        0
C       14.85920000      16.60780000       1.35219000        0
C       15.78110000      17.01520000       0.27311200        0
C       15.46640000      14.05480000       1.13632000        0
C       15.43170000      15.24840000       1.52543000        0
Cl      13.30210000      16.93260000       2.24526000        0
Cl      25.48020000       7.89563000       4.15741000        0
H       16.48650000      11.98530000      22.76810000        0
H       14.90010000      20.83710000       1.53415000        0
C       26.63910000       5.00066000       4.09112000        0
C       27.18850000       6.00643000       4.96240000        0
C       26.84740000       7.23158000       5.07592000        0
C       16.28400000      14.33470000       6.74412000        1
Cl      27.34140000       8.52640000       6.12052000        0
H       25.66980000      16.39600000       3.07172000        0
C       22.80650000      14.48780000       7.85425000        0
C       22.95910000      15.28910000       8.85922000        0
C       23.13990000      11.94300000       7.72428000        0
C       22.85360000      13.04910000       7.84523000        0
C       19.94500000      13.18800000      10.23800000        0
C       20.65070000      14.26750000      11.11820000        0
C       20.29360000      15.51690000      11.09300000        0
C       20.85130000      16.83390000      10.76430000        0
Cl      16.18740000      23.53920000      10.67750000        0
H       21.43740000      13.87120000      11.85220000        0
H       20.40270000      17.00830000       9.68439000        0
C       18.76390000      16.92170000      16.54730000        0
C       19.59030000      18.15200000      16.47090000        0
C       18.57960000      15.05310000      14.74260000        0
C       19.22140000      15.83170000      15.72290000        0
Cl      18.40580000      10.10970000      16.39090000        0
H       19.71300000      18.58940000      17.41750000        0
H       16.12580000      17.04150000      17.17280000        0
H       20.34990000      15.69260000      15.68490000        0
1800
Lattice="37.9259956752 0.0 0.0 0.0 27.4694991031 0.0 0.0 0.0 25.4147825202" Properties=species:S:1:pos:R:3:ring:I:1 timestep=11109 pbc="T T T"
C       24.95110000      17.73810000      17.61910000        1
C       25.36200000      19.03700000      17.89730000        1
C       26.37940000      19.42030000      17.11020000        1
C       26.88960000      20.74840000      16.62020000        0
Cl      23.88910000      16.95260000      18.76350000        0
Cl      20.52300000      25.07170000      23.28490000        0
H       26.77840000      12.28400000      16.67790000        0
H       28.84410000      16.71320000      17.54590000        0
C       28.93540000      14.01520000      22.45070000        1
C       26.48200000      22.34530000      20.93620000        0
C       29.81250000      16.35260000      22.60960000        1
C       29.55710000      14.97830000      23.08240000        1
C       26.33000000      22.13200000       3.66475000        0
C       26.32020000      23.46750000       3.56656000        0
C       23.19050000      22.88990000       4.10467000        0
C       22.05780000      23.60160000       4.17837000        0
Cl      27.36300000      21.02460000       2.04420000        0
Cl      22.01750000      15.03280000       3.27844000        0
H       31.23850000      20.52000000       3.11068000        0
C       25.39520000      22.79540000       5.58379000        0
C       25.75420000      24.01360000       5.20291000        0
C       24.37430000      21.29390000       7.17353000        1
C       24.78060000      22.64500000       6.78294000        1
H       25.41510000      20.64080000       4.98334000        0
C       22.27790000      18.54830000      12.18640000        0
C       21.69210000      18.64460000      10.80440000        0
C       21.89170000      20.04840000      10.01300000        0
C       21.53950000      21.40370000       9.68311000        1
C       27.87510000      21.64530000      14.83760000        0
C       27.10290000      22.71350000      15.52360000        0
C       27.62030000      19.26220000      15.05840000        0
C       27.66360000      20.56110000      15.59330000        0
Cl      28.66150000      21.63460000      13.26110000        0
Cl      34.90940000      11.74540000       8.10855000        0
H       22.51370000      25.55370000      18.02690000        0
C       26.36280000      22.09950000      16.71200000        0
C       25.48240000      22.60200000      17.75540000        0
C       24.65730000      23.17860000      18.56690000        0
C       23.44680000      23.63230000      19.14760000        1
H       24.39210000      19.71040000      18.09610000        0
C       26.84430000      27.14980000      21.34550000        0
C       25.74170000       0.22757100      21.13060000        0
C       26.74500000      20.98600000      20.66680000        0
C       27.63830000      26.38590000      22.14540000        0
Cl      16.38270000      19.17650000      24.43580000        0
Cl      26.87390000      19.35210000      21.07250000        0
H       28.43680000      25.99840000      21.43250000        0
H       30.51030000       2.52427000      21.15780000        0
C       20.89360000      23.04530000       5.04687000        0
C       20.23160000      22.01030000       5.55920000        1
C       20.47080000      20.58460000       5.40588000        1
C       21.72360000      20.04140000       4.64032000        1
Cl      29.33090000      20.29000000      24.96640000        0
H       22.34750000      20.71170000       3.86582000        0
H       15.12460000       0.67724000      12.23830000        0
C       23.94070000      27.31160000       6.64102000        1
C       24.26350000       1.28204000       6.78612000        1
C       25.70270000      25.52260000       5.46577000        0
C       24.81750000      25.86910000       6.49055000        0
Cl      26.26840000      27.02880000       4.52202000        0
C       20.76630000      22.40870000      10.22460000        1
C       21.23720000      23.68260000      10.60930000        1
C       22.04270000      24.20940000       9.36715000        1
C       22.12800000      25.46510000       8.83655000        1
Cl      14.95650000       2.74672000      20.53970000        0
H       22.87140000       2.26458000      14.14300000        0
C       26.66350000      25.89960000      14.28270000        0
C       25.47220000      26.07720000      14.94640000        0
C       27.20460000      24.16060000      15.13010000        0
C       27.35710000      24.73820000      13.86030000        0
Cl      30.67330000      24.64860000      16.20400000        0
Cl      24.17740000      17.53110000      22.31840000        0
Cl      27.65480000       0.02333570      14.13570000        0
H       27.92410000      24.75830000      13.03090000        0
C       22.74640000      24.78200000      18.90060000        1
C       22.17750000      25.54390000      19.92050000        1
C       21.50340000      26.90230000      19.79320000        0
C       21.13530000       0.31938400      18.81250000        0
Cl      27.75200000       9.19277000      24.36330000        0
C       22.68880000       2.40763000      20.88180000        0
C       22.69830000       2.15013000      22.13620000        0
C       24.64540000       1.15709000      21.26620000        0
C       23.90320000       1.90932000      20.16030000        0
H       24.10560000       2.00125000      19.06090000        0
C       22.09170000      18.72410000       4.79022000        1
C       21.13090000      17.98900000       5.37364000        1
C       19.91220000      18.51060000       6.01651000        1
C       19.50010000      19.85840000       6.03403000        1
Cl      23.84760000      18.21190000       4.68608000        0
Cl      19.83380000      25.15350000       0.81697100        0
H       21.25010000      16.93690000       5.60613000        0
C       27.57900000       3.25858000       7.22829000        0
C       26.54260000       8.99964000       5.53741000        0
C       25.24140000       2.43641000       6.72418000        0
C       26.48830000       2.68573000       6.24606000        0
Cl      28.34780000       4.89952000       7.25816000        0
H       26.72130000       8.94268000       4.52194000        0
H       26.90260000       2.44546000       5.02540000        0
C       21.20580000      26.81240000       9.06629000        0
C       20.65520000      27.33050000      10.67210000        0
C       20.41150000       0.95950600      11.38830000        0
C       20.31900000       2.40132000      11.20950000        0
C       24.51440000       2.39610000      15.72220000        1
C       23.53070000       2.98046000      14.71660000        1
C       24.91430000      27.42460000      15.16370000        0
C       24.52640000       1.02699000      15.53640000        0
Cl      23.95100000       5.03140000      20.00740000        0
H       19.75510000       0.84293600      12.36670000        0
C       21.11160000       2.57743000      20.54940000        0
C       20.83180000       3.93867000      20.17100000        1
C       22.50730000       2.72221000      23.20610000        0
C       22.04440000       3.35629000      24.36750000        0
C       25.96450000       3.00737000      22.79510000        0
C       26.73570000       3.90358000      22.12070000        0
C       24.21000000       1.36061000      22.57120000        0
C       25.33330000       2.09601000      23.37520000        0
Cl      28.81680000       2.22601000      23.20770000        0
H       28.53290000       6.75693000      24.03110000        0
H       26.10450000       1.03740000      23.55190000        0
C       18.29240000      20.51580000       6.48865000        1
C       18.12570000      21.87360000       6.54262000        1
C       19.25000000      22.54600000       6.32543000        1
C       19.17890000      24.14910000       6.20526000        0
Cl      37.57110000      25.08110000      24.19200000        0
Cl      33.08070000      15.57620000      19.88250000        0
H       17.47250000      19.79920000       6.71291000        0
H       30.41500000       6.57731000       2.74965000        0
C       29.33990000      11.65340000       6.54483000        0
C       29.08140000      13.08030000       5.93317000        1
C       27.90380000       9.54529000       5.96126000        0
C       28.13160000      10.74180000       6.68354000        0
H       27.04260000      11.22570000       6.59385000        0
C       19.63770000       3.50993000      11.31790000        0
C       18.67430000       4.51586000      11.93160000        0
C       19.09140000       5.66899000      12.39840000        0
C       19.29410000       6.75637000      13.05480000        0
Cl      22.08910000       4.85150000      13.73060000        0
Cl      23.38370000      25.61310000      12.28040000        0
Cl      17.50290000      24.31310000      10.21960000        0
C       22.98980000       5.27052000      17.21060000        1
C       23.00130000       6.68001000      17.54160000        1
C       23.07610000       4.21211000      14.90400000        1
C       23.67710000       5.37824000      15.92860000        1
Cl      21.05450000       4.86443000       7.14128000        0
C       20.77580000       3.21406000      24.73830000        0
C       19.69580000       3.64814000       0.29851800        0
C       19.40790000       4.89160000       0.79037900        0
C       20.46810000       5.80260000       0.59034900        0
Cl      14.57940000      13.56900000       9.01704000        0
C       26.53710000       7.30870000      21.16410000        0
C       27.00480000       8.56497000      20.57680000        0
C       26.95690000       4.91938000      21.24400000        0
C       26.53650000       6.21576000      21.77740000        0
Cl      19.69450000      11.74010000      19.42850000        0
H       15.96480000      12.64150000       5.02288000        0
H       28.15710000      16.69080000      15.02310000        0
C       20.34680000      24.38270000       5.42521000        0
C       20.60420000      25.19230000       4.36516000        0
C       21.74470000      24.82780000       3.53442000        0
C       22.49610000      25.64930000       2.59737000        0
C       26.59860000      13.40780000       2.91893000        1
C       25.38000000      12.58710000       2.61695000        0
C       28.33910000      13.50170000       4.76936000        1
C       27.29430000      12.78600000       3.88942000        1
Cl      29.05130000      18.46230000       0.98535200        0
H       26.98870000      11.61630000       4.17177000        0
C       19.78930000       7.35341000      14.09720000        0
C       20.75450000       7.89721000      14.94290000        0
C       21.90200000       8.40008000      15.60550000        0
C       22.78600000       9.24196000      16.12460000        0
Cl      25.45580000       2.01761000       1.27124000        0
Cl      24.69730000       4.80074000      11.11370000        0
Cl      27.42170000       4.80584000      19.69770000        0
H       22.29320000      10.73560000      19.23370000        0
C       22.38450000       9.21757000      17.90330000        0
C       22.62830000      10.62560000      18.13790000        0
C       22.10780000       7.00441000      18.49670000        1
C       22.06450000       8.28865000      18.87410000        1
C       20.76110000       7.00664000       0.95246800        0
C       21.43530000       8.19395000       0.78344300        0
C       20.95820000       9.40182000       0.91202400        0
C       20.30590000      10.43070000       1.47836000        0
C       26.34740000      11.96240000      21.17040000        1
C       27.27180000      12.43320000      20.07970000        1
C       26.69550000       9.86378000      20.33500000        1
C       25.84980000      10.61750000      21.27880000        1
Cl      27.35880000      17.54560000      24.75600000        0
Cl      26.15580000      13.08220000      22.48010000        0
Cl      13.54820000      17.07510000      23.41940000        0
H       28.86570000      11.22550000      25.33120000        0
H       25.45470000       9.96789000      22.31430000        0
C       22.65700000      27.11480000       2.88576000        1
C       19.84020000      26.33820000       4.00738000        0
C       22.07280000      14.87170000       1.62120000        0
C       22.82760000      15.14430000       0.48066100        0
C       24.76870000       9.83997000       3.31176000        0
C       25.70090000       9.39190000       2.41611000        0
C       24.35100000      12.70490000       3.69395000        0
C       24.90630000      11.34010000       3.44869000        0
H       26.49640000      10.08530000       1.66875000        0
H       24.02820000       9.51765000       3.93783000        0
C       23.07840000      10.58420000      15.75020000        0
C       23.93990000      11.11170000      14.71080000        0
C       24.19640000      12.27480000      15.32670000        0
C       24.59040000      13.60620000      14.86110000        0
Cl      14.45040000      13.78610000      20.67250000        0
H       19.03750000      14.72750000       9.10338000        0
C       24.38370000      13.60120000      17.29230000        0
C       24.43870000      14.60550000      16.31770000        0
C       23.19950000      11.37470000      17.10270000        0
C       23.81520000      12.52590000      16.67950000        0
Cl      19.36400000       8.81216000       9.31299000        0
H       21.39750000      19.06360000      12.58010000        0
C       20.01860000      11.67260000       1.44998000        0
C       20.80340000      12.72010000       1.45018000        0
C       21.56180000      13.66570000       0.97558300        0
C       23.38030000      16.11550000      25.32070000        0
H       24.09620000      15.32560000      24.98440000        0
C       28.61520000      15.55920000      20.82120000        1
C       29.24730000      16.69840000      21.47290000        1
C       27.81350000      13.71550000      20.13570000        1
C       28.41830000      14.38300000      21.25700000        1
Cl      18.41750000       9.40557000       4.77510000        0
H       25.94290000      22.95840000      20.09240000        0
C       22.17130000      13.97350000      25.26530000        0
C       22.89080000      13.22220000      24.41730000        0
C       23.90530000      21.83970000       3.86592000        0
C       25.18600000      21.66720000       4.59695000        0
Cl      25.28030000      12.39350000       0.84682800        0
Cl      18.90450000      17.04750000      23.67460000        0
H       23.40970000      12.38260000      25.08590000        0
C       25.70100000      19.00760000       7.22371000        0
C       25.13280000      20.09100000       6.95762000        0
C       25.73660000       8.21856000       1.85055000        0
C       26.09150000       7.09815000       1.26970000        0
Cl      27.11060000      24.51890000       2.52899000        0
Cl      26.18930000       7.30583000       6.15217000        0
H       14.23650000      21.94900000       6.41032000        0
H       23.25810000      14.93400000      11.66060000        0
H       27.07540000       6.42727000       1.45819000        0
C       24.71920000      14.45620000      13.63500000        0
C       24.42460000      15.72130000      14.11270000        0
C       23.60650000      16.75390000      13.42590000        0
C       23.14910000      17.40750000      12.13370000        0
C       26.31180000      17.31550000      15.85120000        1
C       27.01750000      18.44590000      16.25270000        1
C       24.47690000      15.72550000      15.71760000        0
C       25.08080000      16.93890000      16.34170000        1
Cl      23.49650000      12.68170000      11.95980000        0
C       26.79690000      11.88820000      18.78760000        1
C       26.91290000      12.68120000      17.70560000        1
C       27.35920000      13.87590000      17.78290000        1
C       27.90200000      14.56580000      18.92790000        1
H       34.01660000      19.21270000      20.62110000        0
C       30.61970000      13.65120000      24.95910000        0
C       30.27930000      14.91950000      24.27940000        0
C       29.79620000      12.10860000       1.40904000        0
C       29.80270000      13.32590000       0.67264800        0
Cl      31.29240000      12.41310000      24.18100000        0
Cl      30.67170000      12.62820000       2.92343000        0
H       25.18840000      17.54020000      23.09410000        0
H       31.45990000      22.26620000      22.15320000        0
H       29.36180000      14.08510000       1.28943000        0
C       30.75930000      17.99310000       3.23467000        0
C       30.56770000      19.51840000       3.38982000        0
C       29.80860000      20.07330000       4.19157000        0
C       29.88650000      21.64460000       4.32369000        0
Cl      28.75150000      18.82510000       5.20836000        0
Cl      37.24620000      15.31360000       0.71103700        0
H       37.29380000      17.56330000       1.34982000        0
H       28.84600000      21.88940000       4.00037000        0
C       36.30280000      18.83600000       2.87957000        1
C       36.66090000      17.59520000       2.21529000        1
C       34.46890000      17.66670000       4.16693000        1
C       35.10940000      18.89330000       3.65327000        1
Cl      23.55250000      19.90570000      12.15010000        0
Cl      30.01170000      19.12910000      18.10740000        0
C       26.61090000      17.86040000       9.29650000        0
C       27.21250000      16.74380000       9.63208000        0
C       27.41410000      15.47290000       9.33426000        0
C       27.75110000      16.83130000      10.97140000        0
Cl      22.47960000      17.83890000      14.48920000        0
C       28.17920000      15.65880000      11.45190000        0
C       27.35660000      18.92920000      12.68960000        0
C       28.82050000      13.51010000      10.22730000        0
C       28.30230000      14.81200000      10.24990000        0
Cl      28.36720000      14.81150000      12.81580000        0
C       28.69000000      15.73940000      19.45010000        1
C       29.17540000      16.71950000      18.57680000        1
C       29.40810000      17.98860000      19.33960000        1
C       29.73100000      17.94100000      20.71350000        1
Cl      28.09220000      14.59220000      16.48910000        0
H       33.23930000      21.17090000      19.46390000        0
C       31.27030000      18.04680000      22.77570000        1
C       32.14840000      19.07840000      23.16810000        0
C       31.11900000      16.00950000      24.35620000        0
C       30.90810000      16.87490000      23.30970000        1
Cl      23.77670000      20.60020000       2.52340000        0
H       32.57860000      18.68570000      24.12620000        0
C       30.51570000      22.74520000       4.77040000        0
C       29.60880000      23.84840000       5.31516000        0
C       29.40680000      25.38020000       5.23437000        0
C       34.91120000      21.05910000      25.38360000        0
Cl       1.60977000       5.86690000       5.87227000        0
H       35.87990000      20.39830000       0.47634300        0
C       37.47980000      22.08310000       0.62677500        0
C       36.42050000      22.91240000       0.14461900        0
C       36.56160000      20.03050000       2.28433000        0
C       36.97540000      20.74860000       1.24909000        0
Cl      28.24210000       4.91163000      10.33160000        0
C       27.36700000      18.22320000      11.48960000        0
C       26.78370000      18.84680000      10.36200000        0
C       26.57640000      20.19220000      10.39700000        0
C       26.67430000      21.45670000      10.41130000        0
Cl      18.30020000      13.66480000       7.32803000        0
C       31.46940000      23.16330000      11.16310000        0
C       31.88410000      22.80580000       9.87398000        0
C       27.62780000      18.32800000      13.98010000        0
C       27.19250000      16.97990000      14.41000000        0
Cl      32.12030000      23.85590000      12.51340000        0
H       25.03260000      25.31120000      15.37070000        0
H       25.81940000       6.78638000       0.07522990        0
C       30.73110000      18.64990000      21.41170000        1
C       31.15980000      19.80500000      21.38040000        0
C       30.99470000      20.77950000      20.41190000        0
C       30.43680000      22.03140000      20.18750000        0
Cl      29.84430000      23.46610000      11.25150000        0
H       35.76350000      27.15100000      18.19520000        0
C       26.83820000      23.04120000      22.02920000        0
C       26.66030000      24.23890000      22.39340000        0
C       32.09900000      20.16170000      22.46340000        0
C       32.45500000      21.79750000      22.47920000        0
Cl      28.27330000      22.15480000      22.68360000        0
Cl       3.52426000      25.03810000       1.92269000        0
Cl      32.56650000      15.92040000       0.14859100        0
H       32.84750000      21.73480000      23.42190000        0
C       33.70920000      20.45580000       0.36373200        0
C       32.42560000      21.17210000       0.13760800        0
C       32.76500000      23.27540000       0.09009010        1
C       32.46350000      24.56310000      25.28190000        1
Cl      33.77870000      18.74380000       0.95630100        0
H       31.64640000      21.31320000       0.89102600        0
C       36.35370000      24.10240000      24.81570000        0
C       34.88040000      24.46770000      24.45140000        1
C       35.07150000      22.46360000       0.02788540        0
C       34.22460000      23.37860000      25.04950000        1
Cl      33.96570000      22.43700000       3.13441000        0
Cl      35.07590000      23.94500000      14.70230000        0
H        4.63504000      14.35130000      24.12140000        0
C       26.92110000      22.79620000       9.86746000        0
C       26.30480000      24.06850000      10.27440000        1
C       25.38020000      24.13110000      11.26250000        1
C       24.67990000      25.34380000      11.31930000        1
Cl      18.47570000      17.12330000       8.43717000        0
H       24.91560000      23.13790000      11.18850000        0
H       27.67450000       0.19387600       8.18697000        0
C       32.58890000       2.31160000      14.42770000        1
C       32.24340000       3.62995000      13.70720000        0
C       32.57460000      27.41500000      14.64360000        1
C       32.71430000       1.09649000      13.97120000        1
Cl      31.74520000      26.04930000      13.76220000        0
H       32.95190000       0.82997400      12.96910000        0
C       30.69970000      23.39860000      19.89140000        0
C       30.44790000      24.68940000      20.12070000        0
C       30.10470000      25.91930000      19.95680000        0
C       30.29260000      27.06480000      19.35890000        0
Cl      27.25860000      26.39560000      18.21870000        0
C       28.08220000      26.61810000      24.89750000        0
C       29.30100000      27.05840000      25.05540000        0
C       26.84320000      24.64470000      23.71830000        0
C       27.76460000      25.90670000      23.75490000        0
Cl      27.07630000      23.50780000      25.16710000        0
C       29.84240000       4.55501000       3.39462000        0
C       30.55240000       5.65762000       3.36329000        0
C       31.59170000       5.80169000       4.53918000        0
C       33.03090000       5.69454000       4.38835000        0
Cl      30.03600000       3.40438000       4.59050000        0
Cl      28.20510000       4.95772000       2.91998000        0
Cl       1.78226000      10.71250000       7.62178000        0
H       31.44360000      20.99380000      24.81260000        0
H       34.45810000      27.39320000       2.11905000        0
C       28.94670000       8.88744000       5.19863000        0
C       30.11590000       9.01373000       4.74984000        0
C       34.05050000      25.05450000      23.61160000        1
C       34.58660000      25.97060000      22.70050000        1
H       35.78660000      26.03560000      22.90130000        0
C       25.37420000      26.37300000      10.59350000        1
C       24.76170000       0.04829350      10.98490000        0
C       25.30580000       1.30677000      11.10860000        1
C       25.20630000       2.16745000      12.27380000        1
Cl      35.01340000       3.95014000       7.58126000        0
H       23.81770000       0.13366400      11.52970000        0
H       24.17560000       2.15390000      12.69610000        0
C       32.68400000       6.49424000      14.87790000        0
C       31.31710000       6.59137000      14.82100000        0
C       33.17810000       4.56852000      13.35590000        0
C       33.48820000       5.94015000      13.70900000        0
H       23.51020000       7.59538000      16.88580000        0
C       30.68040000       0.87097600      19.06150000        0
C       31.29440000       1.92028000      18.72460000        0
C       31.52940000       3.23750000      18.86810000        0
C       31.56550000       3.75399000      20.23380000        0
H       23.97000000       0.66783300      23.30210000        0
C       31.80560000       2.12890000       0.23424700        0
C       32.16210000       3.37649000       0.27282900        0
C       30.12440000       0.50285000       0.29609700        0
C       31.46050000       0.92581100      25.16670000        0
Cl      32.74980000       6.88245000      17.99350000        0
Cl      29.09110000       0.74539500       1.63699000        0
H       31.99830000       0.17759000      24.83100000        0
C       36.10390000       9.02128000       4.53785000        0
C       35.03240000      10.43810000       3.99368000        0
C       33.41910000      10.00980000       4.04014000        0
C       32.73670000      10.28490000       2.79358000        0
Cl      36.46580000       7.96681000       3.01820000        0
Cl      31.19500000       5.35128000       6.09039000        0
C       30.25460000      13.68940000       5.91563000        1
C       28.68250000      14.72330000       4.33555000        1
C       31.39870000       8.97214000       4.06532000        0
C       32.69300000       9.20478000       4.90930000        0
H       35.30710000       8.55191000       5.11964000        0
C       26.18960000       3.03114000      12.86430000        1
C       26.03570000       4.26762000      13.48340000        0
C       26.27750000       5.44300000      14.07680000        0
C       26.60250000       6.46953000      14.78610000        0
Cl      29.22520000       7.93850000      20.84400000        0
H       23.93920000       6.43912000      15.61430000        0
C       29.45000000       9.38944000      16.09890000        0
C       29.98700000      10.25290000      14.96780000        0
C       30.37600000       7.02535000      15.71930000        0
C       29.63600000       7.84937000      15.89200000        0
C       30.98490000       3.45827000      21.43230000        0
C       31.18280000       4.33458000      22.44260000        0
C       30.71180000       5.20950000      23.22750000        0
C       30.66800000       6.01992000      24.43110000        1
C       32.19040000       7.30893000       0.63333500        1
C       31.00350000       8.13527000       0.83756000        1
C       31.96230000       4.65251000       0.38433200        0
C       31.62200000       5.88214000       0.12820700        1
Cl      29.08770000      12.23980000      22.68800000        0
H       27.08560000       0.15246900      18.25400000        0
C       31.49070000       9.57479000       2.87081000        0
C       30.65170000       9.05571000       1.71057000        0
C       26.87400000      14.77870000       2.48743000        1
C       26.43060000      15.66890000       1.14295000        1
Cl      31.91920000       2.50740000       6.48587000        0
H       37.25920000      11.35920000      25.30970000        0
H       25.55300000      15.61770000       0.66732600        0
C       30.71520000      14.94150000       5.50573000        1
C       32.19820000      14.90480000       5.31120000        0
C       27.95090000      15.41520000       3.25307000        1
C       29.80800000      15.71210000       4.78958000        1
Cl      31.86300000      13.86590000      12.55350000        0
C       26.19960000       6.88741000      16.13200000        0
C       26.03190000       5.41683000      16.70280000        0
C       24.95160000       4.61895000      16.53850000        1
C       25.20370000       3.33405000      16.42920000        1
Cl      26.13190000       7.90285000      17.36780000        0
H       27.02690000       4.89075000      16.85970000        0
H       33.34160000       7.21204000      15.18190000        0
H       26.17200000       2.94616000      16.74270000        0
C       28.55780000      10.27010000      11.48060000        0
C       28.68700000       8.84049000      11.08830000        0
C       28.64650000      10.67550000      14.16010000        0
C       28.65180000      10.70540000      12.81040000        0
Cl      23.75130000      20.09810000      20.55980000        0
H       24.61540000      14.29720000      12.43560000        0
H       31.07310000      11.13610000      13.34070000        0
C       29.48450000       6.64158000      24.48410000        1
C       28.75230000       9.82272000      17.14880000        0
C       27.87520000       9.86723000      18.02460000        0
C       26.89920000      10.42360000      18.98000000        1
Cl      25.59630000       5.92739000      23.24830000        0
C       29.41480000       9.80669000       1.22668000        0
C       29.25110000      11.10870000       0.82895400        0
C       29.75590000       7.63585000       0.15528300        1
C       28.93500000       8.84744000       0.17785300        0
Cl      23.79610000      13.77550000      18.88900000        0
Cl      35.21290000      11.29430000      23.43320000        0
H       32.80620000       7.41139000       1.60458000        0
C       27.52490000      16.39610000       0.77970800        1
C       28.17800000      17.12520000       1.69304000        1
C       28.32490000      16.84970000       3.10063000        1
C       29.69080000      17.06430000       3.70171000        0
H       36.42790000      14.01570000       5.98543000        0
H       31.87990000      17.76190000       3.35520000        0
C       33.01280000      15.77930000       4.69326000        0
C       33.28360000      17.15770000       4.80491000        0
C       32.39560000      13.56940000       5.88555000        0
C       33.46440000      12.68110000       5.30051000        0
Cl      23.17490000       8.13877000       0.30188300        0
H       32.54460000      18.07900000       5.07251000        0
H       24.74130000      16.47950000       6.56921000        0
H       33.61470000      11.51920000       5.51967000        0
C       26.40880000      14.48290000       8.88059000        0
C       25.24720000      15.00320000       7.87896000        0
C       25.38000000      16.33040000       7.35423000        0
C       25.89770000      17.69100000       7.93508000        0
Cl      26.09880000      12.96020000       9.62477000        0
Cl      24.25020000      13.93460000       4.80967000        0
H       24.36210000      14.77200000       7.47207000        0
C       28.43760000      10.93990000      10.18090000        0
C       28.85710000      12.26460000      10.04500000        0
C       28.49420000       8.77298000       9.65827000        0
C       28.21290000      10.06490000       9.19149000        0
Cl      28.92280000       7.37905000       8.83645000        0
H       28.41910000      10.56630000       8.18227000        0
C       35.74200000      19.19100000      22.25100000        1
C       35.01500000      19.57130000      21.07120000        1
C       35.18310000      20.92780000      20.67320000        1
C       34.23660000      21.66660000      19.66750000        1
Cl      36.38740000      16.59350000      18.77680000        0
Cl       8.05817000       5.68460000      11.79160000        0
H        3.28061000      17.58990000      16.13520000        0
C        3.43540000      20.20470000       0.44899000        0
C        2.50093000      20.72560000      25.17660000        0
C        0.66482000      23.04140000      22.03370000        0
C        1.60224000      23.27920000      22.76080000        0
Cl       1.28159000      18.82770000      24.50340000        0
C       35.02950000      16.48310000       3.63646000        1
C       36.00340000      16.32330000       2.52129000        1
C       36.46610000      15.05150000       2.29511000        1
C       36.51330000      14.12930000       3.14463000        1
Cl      32.01870000      22.59140000       5.51226000        0
Cl      37.81510000      10.51170000       2.36232000        0
H       37.15690000      12.98520000       3.33869000        0
C       34.36330000       0.01829560       4.90601000        0
C       34.04150000       1.48363000       5.00379000        0
C       34.13690000      25.19420000       4.38776000        0
C       34.29070000      26.61110000       3.92651000        0
H       36.68760000       0.93065600       8.34744000        0
C       30.62600000      11.51600000       6.77254000        0
C       28.36670000      25.72790000       6.11406000        0
C       27.99210000      24.64650000       6.91738000        0
C       29.07560000      23.60280000       6.61501000        0
Cl      37.65100000      17.31680000       9.53320000        0
H       28.14630000      26.59610000       6.60538000        0
C       32.29010000      16.10610000      16.45890000        0
C       32.71410000      14.78270000      16.73570000        0
C       34.81630000      21.58300000      16.33630000        0
C       35.53070000      22.54520000      15.73240000        0
H       31.95740000      14.23890000      17.31440000        0
H       26.64960000      19.81820000      12.85190000        0
H       32.89360000      17.09080000      16.84740000        0
C       34.42230000      23.00170000      19.38440000        1
C       33.88770000      24.05960000      18.46800000        0
C       32.83400000      23.90570000      17.78140000        0
C       32.24080000      24.99220000      16.81670000        0
Cl      37.49060000      17.97220000       6.40929000        0
C        2.42850000      22.63830000      23.74070000        0
C        3.95988000      22.76420000      23.85630000        0
C        1.71618000      21.77020000      24.60050000        0
C        0.63516600      22.43490000      25.38020000        0
Cl       8.62442000       6.80995000      23.91930000        0
H        0.54319300      23.22880000      24.56290000        0
C       33.73490000       0.80230300      17.63740000        0
C       33.72350000      26.88870000      17.59250000        0
C       34.98020000      26.46080000      18.14830000        0
C       35.28210000      25.18980000      18.64760000        0
Cl      31.81720000       0.76194000      22.37880000        0
Cl      34.13900000       1.59943000      19.08380000        0
Cl      35.60800000      16.86120000       7.20158000        0
H       32.88100000      22.82660000      17.25850000        0
C       31.70140000      26.72990000       7.35988000        0
C       32.68630000      27.37080000       6.37758000        0
C       32.67720000       1.21013000       5.86905000        0
C       26.57080000       1.55305000      10.56060000        1
Cl      32.66230000      25.86130000       8.65165000        0
H       30.91610000      22.56990000       9.27302000        0
C       28.91630000      22.47760000       7.55154000        0
C       27.91350000      23.09030000       8.57603000        0
C       27.59520000      24.45600000       8.41601000        0
C       26.67850000      25.09150000       9.41273000        1
H       33.76220000       0.33131400       9.27125000        0
C       31.51140000      15.43050000      13.05970000        0
C       31.65020000      16.34760000      12.12600000        0
C       31.61620000      16.64750000      15.49470000        0
C       31.10440000      15.67590000      14.40280000        0
Cl      29.54720000      20.73360000       7.67210000        0
H       31.43910000      16.03270000      11.10290000        0
H       32.99980000      23.08130000       9.55528000        0
H       30.77450000      14.53500000      14.70780000        0
C       32.71120000      26.25900000      16.78350000        0
C       32.61880000      27.40480000      15.98040000        1
C       32.96310000       1.18736000      16.59150000        1
C       32.80290000       2.43701000      16.03270000        1
Cl      37.24110000      26.16030000       1.51266000        0
H       35.60230000      26.05590000      14.18460000        0
C        6.62590000      25.10490000      23.19300000        0
C        6.18970000      25.82070000      21.87160000        0
C        5.09058000      23.09020000      23.49130000        0
C        6.23257000      23.90980000      23.81230000        0
H       26.26610000      25.08650000      21.75630000        0
C       36.19760000      24.51330000      19.47330000        0
C       35.67150000      23.42770000      20.05880000        1
C       37.92580000       6.90899000       5.75400000        0
C        0.34270300       8.33307000       5.58241000        0
Cl       5.55491000      20.33090000       4.65501000        0
C       32.71740000      25.33920000      24.15530000        1
C       31.83060000      26.12430000      23.45990000        1
C       34.03670000      26.79660000       6.11842000        0
C       34.23540000      25.27580000       5.94533000        0
Cl      35.06910000       2.08790000       1.05079000        0
Cl      36.57790000       6.41942000       6.87756000        0
H       30.79890000      25.91380000      23.76890000        0
H       33.79080000      24.78370000       6.70540000        0
H       30.70680000       0.01353020       7.43948000        0
C       26.48120000      26.46480000       9.64550000        1
C       26.74360000       0.07123270       8.79985000        0
C       26.70570000       1.45487000       9.05955000        0
C       27.31760000       2.72989000       8.59677000        0
C       32.53020000      20.00810000      12.78480000        0
C       33.41810000      20.98160000      13.16810000        0
C       31.71580000      17.69960000      12.41180000        0
C       32.67630000      18.58470000      12.94890000        0
Cl      33.00860000      18.59780000      17.98590000        0
H       32.73980000      21.94430000      13.40070000        0
H       33.45400000      18.36490000      13.40500000        0
C       32.46090000       3.66210000      16.47340000        0
C       32.03400000       4.30251000      17.94260000        0
C       32.58440000       5.36376000      18.66450000        0
C       32.50800000       5.01211000      20.06360000        0
C        3.18013000      27.40450000      23.65270000        1
C        2.37265000      27.36450000      22.52360000        1
C        4.92775000      26.63930000      21.94900000        1
C        4.50221000      26.82380000      23.42490000        1
Cl       2.53397000       0.33551800      25.24950000        0
H        1.39207000       0.41713200      22.53140000        0
C       37.22120000       9.34569000       5.42879000        0
C       37.31610000      10.66870000       5.84350000        0
C        0.48426900      11.39390000       6.43955000        0
C        0.21937000      12.66890000       6.69515000        0
H       35.58220000       8.27139000      18.27990000        0
C        5.65209000       9.55761000       3.17361000        0
C        3.94784000      10.06530000      25.31830000        0
C       32.40700000      26.83240000      22.48710000        1
C       33.72780000      26.67750000      22.02050000        1
Cl       5.73407000      12.48890000      21.63290000        0
Cl       1.52007000      13.85180000       6.72656000        0
H       33.43480000       5.93283000       3.26944000        0
H       33.93190000      27.25900000      21.10570000        0
C       27.82650000       3.36354000       9.75601000        0
C       27.40740000       2.48514000      11.13160000        1
C       27.55590000       2.68239000      12.50360000        1
C       28.92030000       3.04852000      12.69500000        0
H       29.56490000       2.70640000      11.76450000        0
C       35.43390000      23.74830000      10.49680000        0
C       35.29750000      25.03410000      11.28830000        0
C       34.38820000      21.55480000      11.77690000        0
C       34.62580000      22.61140000      11.15250000        0
Cl      37.32130000      22.88620000      10.73990000        0
H       32.57490000       4.46588000      15.88090000        0
C       32.48710000       6.05136000      20.92670000        0
C       32.73420000       7.41279000      20.88340000        0
C       32.84130000       8.63083000      20.98260000        0
C       32.85950000       9.86865000      20.95360000        0
Cl       3.23970000       2.14232000      18.84320000        0
C       31.17960000      10.81760000      14.34690000        0
C       32.39470000      10.80700000      14.83250000        0
C        2.73328000      26.81660000      21.21380000        1
C        4.18940000      26.71800000      20.88470000        1
Cl      32.47430000      10.96190000      16.72480000        0
Cl       2.02364000      25.95940000      19.69230000        0
C       36.81100000      12.95990000       6.34425000        0
C       36.33130000      11.81800000       5.62598000        0
C       35.38660000      11.65960000       4.57214000        0
C       35.02590000      10.80520000       2.42025000        1
Cl      35.02810000      14.66200000      11.29880000        0
H       32.61450000      10.92790000       0.04391420        0
C        6.72265000      10.95430000       4.58284000        1
C        6.58947000       9.51822000       4.18328000        1
C        5.41648000      10.83460000       2.72888000        1
C        6.48256000      11.73500000       3.43926000        1
C       29.62720000       3.27642000      13.84770000        0
C       30.88350000       4.08613000      13.63270000        0
C       30.77510000       5.60234000      13.52860000        0
C       30.83690000       6.28336000      12.47930000        0
Cl      29.01000000       3.59413000      15.46630000        0
C       35.33100000       0.52310700      13.14440000        0
C       35.33890000       1.71034000      12.78030000        0
C       35.42090000      26.11110000      12.00750000        0
C       35.48210000      26.75410000      13.26900000        0
Cl      36.81850000      13.77880000      17.57460000        0
Cl       0.28406000      26.31570000      16.61010000        0
H       35.51790000      24.18810000       9.54958000        0
C       33.12200000      11.04930000      20.75570000        0
C       33.22180000      12.25470000      21.13210000        0
C       33.54860000      13.39060000      21.17990000        0
C       35.37300000      14.29550000      23.38080000        0
Cl       3.21677000       8.73752000       2.36300000        0
H        1.39304000      13.51600000      17.04040000        0
C       36.57730000      19.93080000      23.04610000        1
C       36.78620000      21.25180000      22.56820000        1
C       33.62100000      10.14190000      14.19770000        0
C       33.39260000       8.72519000      13.90620000        0
Cl       6.18182000      15.72470000      21.87980000        0
H       37.56000000      25.91240000      20.66010000        0
H       32.62200000       8.17037000      13.16530000        0
C       36.08290000      11.10400000       1.68628000        1
C       36.22230000      10.94170000       0.28165300        1
C       34.91640000      11.05100000      25.20440000        1
C       33.67540000      11.28250000       0.42139900        1
Cl      25.11130000       9.78137000       6.17410000        0
C        1.16224000      14.86400000      13.48220000        0
C        1.15796000      15.27990000      11.99460000        0
C        4.71765000       8.58092000       2.76119000        0
C        0.16203100      13.98820000      13.72380000        0
H       37.72930000      13.77440000      14.61030000        0
C       31.25120000       7.20068000      11.57650000        0
C       31.28890000       8.14244000      10.77130000        0
C       31.53000000       8.95389000       9.73645000        0
C       31.06770000       9.72019000       8.85896000        0
H       32.69150000       8.38877000       5.61071000        0
C       36.15430000      15.00890000      16.69740000        1
C       35.79600000      16.19430000      17.21920000        1
C       35.33380000       3.12772000      12.87560000        0
C       34.40310000       4.23691000      12.61380000        0
H       28.89030000       8.19824000      11.88350000        0
C       33.80050000      14.67550000      21.53080000        0
C       34.65190000      15.13780000      22.41230000        0
C       34.96490000      16.57580000      22.45300000        0
C       35.50490000      17.71570000      22.37740000        0
Cl      37.26960000      20.51660000       8.29187000        0
H        3.13566000      19.26260000      14.81810000        0
H       37.26200000      22.15550000      23.05730000        0
C       37.47350000      23.75490000      21.23110000        0
C       37.31360000      24.92510000      20.36150000        0
C       36.17180000      21.56290000      21.36340000        1
C       36.39910000      22.91540000      21.07210000        1
Cl      33.14410000      21.26120000      15.86970000        0
Cl       0.77564000      16.11480000      22.78770000        0
C       33.71020000      10.90210000       1.85297000        1
C       34.56260000      12.92700000       4.44864000        0
C       35.02430000      14.11460000       3.93541000        1
C       34.34540000      15.37550000       3.98428000        1
C        3.29689000      16.78930000       9.10464000        0
C       34.09920000      24.10000000       3.29751000        0
C        1.87145000      15.85550000      10.99730000        0
C        2.45586000      16.41800000      10.15550000        0
H        4.13293000      19.20810000       0.50127300        0
C       31.24490000      10.93090000       8.02667000        0
C       31.79110000      12.15910000       8.85679000        0
C       31.53340000      13.28380000       8.23215000        0
C       31.22710000      13.00530000       6.76545000        0
Cl      31.91020000      15.04850000       8.71234000        0
H       32.60000000      12.07260000       9.59058000        0
C       35.11400000      19.77700000      17.17240000        0
C       35.88850000      20.85730000      17.04650000        0
C       35.37720000      17.36240000      16.48630000        1
C       34.60430000      18.64910000      17.09200000        0
Cl      28.54630000      16.25000000       6.60366000        0
H       26.66070000      16.39620000      13.54570000        0
C        1.24039000      18.16830000      16.60210000        1
C        2.51549000      17.90290000      17.02170000        1
C        3.20777000      17.99330000      18.15000000        1
C        2.28872000      18.20610000      19.24080000        1
Cl      11.38620000      11.68720000      19.51410000        0
H       11.26190000       9.01682000      19.70410000        0
H        2.71371000      17.39510000      20.04560000        0
C        8.83115000      20.89120000      22.74710000        0
C        8.38096000       5.28155000      21.27380000        0
C        8.81434000      19.73270000      20.60630000        0
C        9.03422000      19.72120000      22.12940000        0
Cl       8.43258000      22.26940000      21.85710000        0
Cl       8.72619000      20.89380000      24.27860000        0
Cl       7.88245000      18.86050000      18.37590000        0
H        9.30580000       5.57134000      20.69410000        0
H        9.68757000      18.85160000      22.42820000        0
C        0.24999700      13.35190000      23.21610000        0
C       36.36750000      13.42020000      23.28310000        0
C        5.47762000      18.36210000       6.57751000        1
C        6.95968000      16.35190000       6.01470000        1
Cl      34.19200000      20.09370000       4.59858000        0
H       10.89180000      14.30670000      21.50520000        0
C        3.30893000      20.39530000       7.82748000        0
C        2.42944000      21.09730000       7.25504000        0
C        3.35762000      18.04970000       8.30332000        0
C        3.14528000      19.37700000       8.69297000        0
Cl       2.94836000      23.73470000       8.89968000        0
Cl      37.07070000       2.50238000       4.89038000        0
H        1.18633000      20.83110000       7.72367000        0
H       34.91160000       1.99131000       5.18240000        0
C       36.09530000      23.68130000       6.13424000        0
C       35.69040000      25.07950000       6.21545000        0
C       36.53390000      26.19730000       6.86605000        0
C       35.21950000      27.11680000       6.95157000        0
Cl       8.62063000      24.56370000       4.57173000        0
C        0.19423500      20.22390000      13.19720000        0
C        1.13543000      21.24310000      12.78250000        0
C       35.66830000      19.27920000      13.35860000        0
C       36.72350000      20.08270000      12.89920000        0
H       33.82020000      14.56780000      17.22530000        0
H       36.32170000      20.75280000      12.13630000        0
C        1.21836000      19.03180000      18.95110000        1
C        0.55951800      18.92260000      17.62950000        1
C        0.29595400      20.03150000      16.71050000        0
C       37.20230000      20.96010000      16.69910000        0
Cl       0.20745100      19.41030000      20.28130000        0
H        8.51630000       9.37412000      18.09710000        0
C       32.95930000      26.21360000       1.82504000        0
C       32.41690000      25.54800000       0.91404400        0
C        8.50238000       4.77511000      22.45320000        0
C       33.95360000      26.63870000       2.53505000        0
Cl      37.19520000       0.93721200      24.23100000        0
Cl      10.07810000       4.60637000      23.25960000        0
H        5.36406000      19.53830000       6.60763000        0
H        5.41220000      14.00030000      24.07300000        0
C        6.56552000      17.75900000       5.69529000        1
C        7.15074000      18.12430000       4.52007000        0
C        6.67767000      19.33020000       3.91461000        0
C        7.61686000      19.57840000       2.91747000        0
Cl       4.53728000      21.63050000       1.02642000        0
C        2.85477000      23.53430000       4.08290000        0
C        4.00229000      23.84320000       3.36847000        0
C        2.75718000      22.17800000       6.19918000        0
C        2.55242000      22.88980000       5.19161000        0
Cl       1.25435000      23.70700000       3.22544000        0
Cl       2.55643000      19.43990000      10.47870000        0
H       36.26510000       4.10532000      24.07530000        0
H       10.09380000       2.97003000      20.41210000        0
C       35.59930000       0.49601900       7.96892000        0
C       34.53900000       1.05310000       8.95332000        0
C       34.11720000       2.19945000       9.49616000        0
C       34.64470000       3.65683000       9.19950000        0
Cl       5.11981000      23.47710000      11.65060000        0
Cl      33.25400000       2.34079000       3.56477000        0
Cl       0.27537900       1.38130000      20.23830000        0
H       11.51780000      23.01540000      25.21390000        0
C        3.05328000      26.74880000       8.50050000        0
C        3.04785000      27.45820000       7.45511000        0
C        2.38925000      21.12780000      13.56790000        0
C        3.09050000      25.58120000       9.20219000        0
Cl      31.09610000      18.34870000      15.47520000        0
H        3.19671000      25.48510000      10.26110000        0
C       37.06790000      22.30020000      16.13150000        0
C        0.11187400      22.87080000      15.19610000        0
C        0.88208800      23.88350000      14.86270000        0
C        2.04995000      24.56480000      14.40440000        0
Cl      11.22930000       2.93976000      19.98480000        0
C       37.20720000       4.28269000       0.62142100        0
C        7.37260000       6.67842000       3.62795000        0
C       36.09540000       2.42151000      24.90870000        0
C       36.87310000       3.72432000      24.83190000        0
H        5.08798000      26.16610000      24.04330000        0
C        8.31929000      20.90900000       2.15839000        0
C        8.18876000      22.30870000       2.20220000        0
C        7.09436000      22.98090000       2.90062000        0
C        6.36143000      23.55970000       3.59683000        0
H       35.51180000      16.54450000      13.40620000        0
C        7.06802000      27.33630000       5.81850000        0
C        7.10953000       1.29309000       6.29359000        0
C        5.50264000      25.55640000       4.67356000        0
C        6.02283000      26.75400000       4.82383000        0
Cl       8.15947000      24.10980000      12.43540000        0
H        0.94322300       3.97552000       5.22415000        0
C       34.21430000       4.59328000       9.94825000        0
C       34.26230000       5.90067000      10.30600000        0
C       34.87060000       6.97140000      10.77030000        0
C       35.42550000       8.14669000      10.25310000        0
H       35.87350000       8.99825000      10.80950000        0
C        0.93313800       2.84688000       5.22700000        0
C        1.40627000       1.37251000      10.61020000        0
C        2.60388000       1.18838000       6.59316000        0
C        1.61995000       1.87369000       5.92036000        0
Cl      30.12660000      18.46850000      11.56620000        0
Cl      37.89070000      26.57200000       5.64559000        0
H        2.46706000       1.44961000      10.08910000        0
C        2.45958000      25.90750000      14.34910000        0
C        3.08458000      27.22440000      14.85860000        0
C        2.46693000       0.55140300      15.85000000        0
C        2.50848000       1.96971000      15.30160000        0
Cl      11.85540000      11.37740000      16.10050000        0
Cl      17.43620000      20.05080000      15.14140000        0
H        2.03884000       0.28448200      16.90540000        0
C        7.49175000       8.99215000       6.53286000        1
C        7.36537000      10.24540000       6.98597000        1
C        7.44531000       7.47917000       4.88718000        0
C        7.05240000       8.72534000       5.08149000        1
Cl      36.03800000      10.73560000      18.25500000        0
H        5.56862000       3.28997000       4.62260000        0
C        5.20732000      24.53130000       3.84882000        0
C       36.27560000       9.10142000      18.63670000        0
C       37.02190000       8.81124000      19.86880000        0
C        0.15694800       9.60477000      20.31240000        0
Cl       5.85896000      21.62560000       8.92490000        0
H       33.38770000       5.62857000       5.50530000        0
C        4.84405000       4.46319000       7.88802000        1
C        4.19374000       5.46712000       8.45555000        0
C        5.74342000       3.33045000       5.66842000        1
C        4.88613000       4.24058000       6.41429000        1
H        4.92245000       9.54309000      25.12350000        0
H        4.48457000       4.90624000       5.71442000        0
C       35.09100000       9.09539000       9.17954000        0
C       35.10400000      10.48980000       9.48913000        0
C       35.79690000      10.93420000      10.52770000        0
C       36.02590000      11.74360000      11.37670000        0
Cl      34.27140000       8.52135000       7.67228000        0
H        9.22451000       1.89377000       9.83265000        0
C       36.60990000       3.82714000      12.12830000        0
C       36.49730000       5.21013000      12.12480000        0
C        0.49089000       2.55342000      10.80490000        0
C       37.68320000       2.76037000      11.86960000        0
Cl      32.88330000       2.20627000      10.85260000        0
Cl      32.88890000       7.78290000      24.63820000        0
H       37.69630000       1.75200000      12.16590000        0
C        1.76041000       2.96108000      16.12640000        0
C        0.95501300       3.75400000      16.52970000        0
C        0.09702260       4.73110000      16.56260000        0
C       37.24000000       5.22586000      17.46040000        0
C        6.62162000      13.11220000       3.34370000        1
C        5.53014000      13.80230000       2.79685000        1
C        7.18191000      11.30810000       5.94326000        1
C        7.54766000      12.65040000       6.10196000        1
C        0.29794100      10.94040000      20.20900000        0
C        0.84857200      12.02950000      20.57130000        0
C        1.93820000      12.74160000      20.65790000        0
C        2.94641000      12.97280000      19.77910000        0
Cl       5.96577000      18.60380000      11.36810000        0
H        8.09369000      14.45960000      19.57580000        0
C        3.13558000       8.36630000       9.80812000        1
C        4.37864000       9.13247000       9.91691000        1
C        4.58294000       6.25194000       9.47810000        0
C        3.51915000       7.06095000      10.05910000        0
H       11.42830000       3.92949000       8.65606000        0
C       36.95450000      12.41080000      12.09380000        0
C       37.57100000      13.60260000      12.48070000        0
C       37.81210000      14.71140000      11.69670000        0
C       36.60150000      15.38740000      11.05140000        0
C       34.65700000       8.01777000      13.34980000        0
C       35.66930000       9.03624000      13.66020000        0
C       35.18790000       5.44967000      12.53440000        0
C       34.53280000       6.55311000      12.98280000        0
C       36.58320000       5.91043000      18.46730000        0
C       36.72600000       6.42258000      19.66300000        0
C       37.07230000       7.48951000      20.29580000        0
C        0.50180400       7.43230000      21.01450000        0
Cl       2.55605000       9.18491000      20.58560000        0
H        2.62529000       5.18594000      22.94140000        0
C        4.41733000      12.87670000       2.46368000        1
C        4.43071000      11.56390000       1.96006000        1
C        4.53464000      14.94930000       2.80815000        0
C        3.44778000      14.02210000       2.61691000        0
Cl       1.22976000      13.34040000      10.11140000        0
H       36.66800000      19.63220000      24.03980000        0
C        3.57640000      14.16860000      19.77500000        0
C        2.77873000      15.01870000      20.85620000        0
C        1.93002000      14.10340000      21.55160000        0
C        0.97006300      14.39720000      22.53140000        0
Cl       4.54399000      14.83180000      18.68820000        0
Cl      36.02620000       2.64531000      16.33240000        0
H        3.47607000       9.71347000      24.39790000        0
C        5.70545000      12.52340000       9.51406000        1
C        4.75541000      13.50970000       9.54127000        1
C        4.47499000      10.46930000      10.59420000        1
C        5.72993000      11.12290000      10.17610000        0
Cl      11.50190000      14.47680000      24.82170000        0
Cl       1.72816000      13.75490000       2.87363000        0
C       36.52240000      16.89700000      10.71840000        0
C       35.46630000      17.75590000      11.02590000        0
C       34.96600000      18.90790000      10.27610000        0
C       34.30690000      18.84640000       9.17304000        0
H       34.90020000      17.46290000      11.91140000        0
H       34.94670000      19.86650000      10.84070000        0
C       35.55640000      12.49600000      14.62720000        0
C       35.78240000      13.77490000      14.84660000        0
C       35.11520000      10.19650000      14.13890000        0
C       36.11060000      11.19190000      14.49430000        0
Cl       0.36893800       3.52112000       9.27970000        0
C        0.95470800       8.68492000      20.92910000        0
C        2.24520000      19.83840000      14.32190000        0
C        0.97469900      19.48500000      14.29600000        0
C        0.78922000      19.23530000      15.59260000        0
C        4.66158000      18.03570000      22.17880000        0
C        7.72129000      19.30860000      19.92970000        0
C        3.80991000      11.24380000       0.69463900        0
C        4.62083000      16.70700000      21.51510000        0
Cl       6.01069000      18.94190000      23.25950000        0
Cl       3.29751000      18.92770000      22.40070000        0
C        3.53538000      15.93860000      21.48730000        0
C        2.77558000      12.02870000       0.25840800        0
C        1.72962000      12.04830000      24.95660000        0
C        1.03003000      12.76300000      24.00060000        0
H       36.33060000      12.86690000      24.20710000        0
C        4.71542000      16.24230000       7.16907000        1
C        4.38925000      17.68410000       7.21828000        1
C        4.89410000      14.37770000       8.34144000        1
C        4.18623000      15.68300000       8.44461000        0
Cl      10.53600000      23.80380000       8.35492000        0
H       34.13480000      24.48110000       2.28708000        0
C       33.77460000      19.96490000       8.44029000        0
C       34.72540000      20.78230000       7.75523000        0
C       36.14600000      21.38140000       7.53871000        0
C       36.18280000      22.61980000       6.69731000        0
Cl      32.36580000      19.76480000       7.70802000        0
H       34.33860000      21.51650000       6.92720000        0
C       35.36160000      17.37670000      14.97630000        1
C       35.86760000      18.68390000      14.49230000        0
C       36.01070000      15.13270000      15.29070000        1
C       35.62480000      16.19020000      14.42410000        1
Cl       2.15956000      14.49980000      16.93650000        0
H       34.39710000      17.79450000       8.74498000        0
H       34.51710000      19.29660000      13.18190000        0
C        8.89413000       8.55750000      19.67550000        0
C       10.18700000       9.55867000      19.60630000        0
C       10.28430000      10.75570000      18.90750000        0
C       10.25190000      12.04560000      16.68100000        1
Cl       5.92535000      22.24740000      17.76300000        0
H       10.74790000      12.97840000      17.09910000        0
C       12.66030000      13.26960000      24.24680000        0
C       14.12690000      13.40630000      23.98290000        0
C       12.60580000      11.50000000       0.90164200        0
C       12.71210000      11.84950000      24.83080000        0
Cl      14.72140000       9.61837000       9.68165000        0
Cl      10.29850000      20.29940000      20.00160000        0
H       12.05910000      12.94810000      23.27110000        0
H        7.67274000       5.44158000      20.55180000        0
H       13.02510000       7.37442000       2.09685000        0
C        9.43850000      20.47960000       1.58614000        0
C       11.19660000      21.95300000       0.35719800        0
C       10.34660000      21.70640000       1.54168000        0
C        9.40795000      22.85740000       1.96663000        0
Cl      10.70050000      18.08500000       1.33181000        0
Cl      13.66700000      24.64320000       0.58550400        0
H       12.32500000      21.51530000       0.53705100        0
H       18.79180000       6.82937000      25.17720000        0
C       12.34720000       2.32750000       0.13653000        0
C       13.20540000       3.54538000       0.74031000        0
C        9.04960000      13.70800000       2.75808000        0
C        9.12493000      15.17560000       2.94294000        0
Cl      12.31780000       2.22000000      23.86180000        0
Cl      10.67780000       2.76467000       0.56050900        0
H       14.21580000       3.47662000       0.32107100        0
H        7.65016000      16.05160000       6.78484000        0
C        9.71707000      22.40250000       9.28365000        1
C       10.16010000      21.43130000      10.17400000        1
C        9.30543000      20.38170000      10.53060000        1
C        7.89501000      20.69820000      10.36220000        1
Cl       6.71833000      15.66850000      11.28780000        0
H        7.07365000      20.07210000      10.90490000        0
C        5.51968000      18.58150000      13.07490000        0
C        5.23643000      19.68110000      13.52960000        0
C        5.66102000      16.17390000      12.65860000        0
C        4.95604000      17.29130000      13.37790000        0
Cl      37.41200000      25.36890000       8.47210000        0
H        9.20782000      18.95660000      14.76780000        0
H        1.05057000      21.75430000      11.92880000        0
H        4.62937000      16.71660000      14.09480000        0
C        9.77629000      11.21020000      17.65180000        1
C        8.74848000      10.37040000      17.33570000        1
C        8.08346000      10.35490000      16.09920000        1
C        7.99620000      11.57000000      15.33140000        1
Cl       6.67636000      10.65270000      19.10480000        0
Cl       7.73965000       8.70250000      15.60540000        0
H        7.89519000      11.55450000      14.29270000        0
C       13.82490000      10.25900000      23.39930000        1
C       14.41960000       9.89983000      22.26740000        1
C       14.99600000      12.23220000      24.21180000        0
C       14.17740000      11.18010000      24.42640000        0
Cl      11.34770000       7.69000000      24.46250000        0
Cl       7.23488000       3.84978000      23.11040000        0
H        7.96165000       2.43831000       5.03480000        0
H       14.66700000      10.45230000      25.15490000        0
C        9.22451000      23.98070000       1.27268000        0
C        9.86389000      25.03740000       0.58584000        0
C        6.78983000      23.64220000      25.00640000        0
C        7.91800000      24.20280000       0.28579500        0
Cl       2.46623000       6.31415000       2.22479000        0
H       14.98190000      20.51030000       3.70157000        0
H        7.54658000      15.14560000       0.10129300        0
C       11.77430000       4.56076000       2.95105000        0
C        7.36870000       0.50865600       1.40814000        0
C       12.50750000       3.92355000       2.03908000        0
C       10.77330000       5.65394000       2.97699000        0
Cl      12.41580000       6.35298000      21.59640000        0
H        6.43811000      22.64850000       0.09621390        0
C        7.57285000      21.67960000       9.45859000        1
C        8.37782000      22.64170000       9.04441000        1
C        8.08782000      23.77550000       8.03164000        0
C        8.71039000      24.39970000       7.16842000        0
Cl       9.81051000      18.98590000      11.16950000        0
C        3.75808000      23.03950000      12.79470000        0
C        3.04836000      24.06320000      13.47580000        0
C        4.94020000      20.88850000      13.73810000        0
C        3.68703000      21.68500000      13.20070000        0
Cl       6.53819000      24.49560000       8.27937000        0
Cl       8.53911000      19.83780000      15.39310000        0
H        4.11401000      27.10750000       6.90753000        0
C        9.14240000      12.48480000      15.83100000        1
C        9.59043000      13.74960000      15.37040000        0
C       10.53050000      14.65200000      15.80720000        0
C       11.44640000      14.69170000      16.93160000        0
Cl      17.44330000       6.84316000      16.85260000        0
C       11.49470000      16.48520000      20.73570000        0
C       12.64950000      17.16540000      20.12830000        0
C       15.25270000       9.98527000      21.18400000        1
C       11.44270000      15.11550000      20.67720000        0
Cl       0.80534800       2.85974000       2.22524000        0
Cl       4.96774000      17.60180000      18.38340000        0
H       14.98230000      21.22410000      21.25030000        0
C        8.93718000      25.25600000      25.09770000        0
C        8.86983000      25.93400000      23.95690000        0
C        7.98277000      25.65640000      22.98770000        0
C        7.58111000      26.41740000      21.96820000        0
Cl       4.73977000      26.28980000      19.28070000        0
H        9.63393000      26.58810000      23.58620000        0
C        8.35356000       2.87493000       4.05415000        0
C       10.50420000       3.82979000       6.66689000        1
C        7.24844000       1.33596000       2.43871000        0
C        7.93746000       2.58819000       2.79855000        0
Cl       5.69507000       1.41413000       2.96102000        0
H       11.28070000       3.41950000       6.03017000        0
H        6.09603000       5.75730000       2.12831000        0
C        8.58573000      25.27430000       6.16211000        0
C        8.31627000      26.66750000       6.30059000        0
C        8.83958000      27.46790000       7.42164000        0
C        8.03141000       1.09301000       7.41110000        0
Cl      10.34720000      27.38820000       8.18857000        0
H       14.88370000      22.36360000      11.33150000        0
C        4.05542000       0.10475900      13.67840000        0
C        2.97646000       2.72400000      14.03870000        0
C        3.47624000      25.44650000      13.32820000        0
C        4.40363000      26.34350000      13.05370000        0
Cl       1.14582000       0.00978935      11.32960000        0
H        5.22402000      26.43630000      12.32960000        0
C       11.65490000      14.85220000      18.13930000        0
C       12.14260000      15.09020000      19.43920000        0
C       13.26300000      16.21050000      19.29440000        0
C        1.39056000      17.80150000       3.34420000        0
Cl      12.08080000      18.11250000      17.06730000        0
H        2.63431000       3.92529000      14.12060000        0
H        1.22089000      18.08680000       2.36920000        0
H        0.78278900      16.91850000       3.67721000        0
C       13.94070000      20.76750000      20.71820000        0
C       13.24500000      21.83870000      19.93110000        1
C       13.25750000      18.43830000      20.34120000        0
C       13.73260000      19.53900000      20.57430000        0
Cl       5.89838000      21.80980000      14.84730000        0
C        3.03998000       3.21792000      24.33950000        0
C        3.36131000       3.48437000       0.07775570        0
C        4.14523000       4.30684000       0.77727900        0
C        4.44055000       5.14437000       1.50409000        0
Cl       8.32327000       0.25444900      21.14430000        0
Cl      13.29860000       0.73877700       1.02009000        0
C        9.20262000       6.08766000       7.76065000        1
C        8.76084000       5.64676000       6.43098000        1
C       10.57320000       4.10273000       8.09226000        1
C        9.98337000       5.31738000       8.60196000        1
Cl      14.80780000       1.21851000      14.83490000        0
Cl      36.12460000       6.06603000       0.81279200        0
H        9.88994000       5.69313000       9.64777000        0
C        7.84894000       2.22810000       8.22962000        1
C        8.48684000       2.54496000       9.57111000        1
C        8.10714000       1.84344000      12.75040000        0
C        7.42399000       2.47747000      11.82240000        0
H       37.23920000      27.27040000       1.74166000        0
C        5.84358000       2.36382000      12.14950000        0
C        4.83825000       1.38531000      13.87320000        0
C        3.77787000       2.29533000      13.06690000        0
C        4.35436000       2.68126000      11.87340000        0
Cl       9.33042000       2.35872000      17.40230000        0
H       37.19320000       6.05749000      12.04410000        0
H        3.94777000       3.55916000      11.03620000        0
C        2.19451000      18.52850000       4.15535000        0
C       37.13970000       2.53834000      20.70200000        0
C       37.70370000       3.87896000      20.83840000        0
C        0.34571200       5.01233000      21.12240000        0
Cl       2.21818000      18.39730000       5.83895000        0
Cl       2.69377000      20.10400000       3.52049000        0
H       35.36840000       2.45294000      24.31710000        0
C       12.11660000      23.61050000      17.78930000        1
C       12.79320000      23.98470000      18.93280000        1
C       13.30890000      23.25750000      20.03120000        1
C       13.36970000      23.95310000      21.20850000        0
Cl      37.21680000       8.97987000      13.25760000        0
H       12.24040000      20.17540000      12.95730000        0
C        4.18526000       6.27506000       2.45223000        0
C        5.05216000       7.30631000       2.96639000        0
C        6.20938000       6.42113000       3.01731000        0
C       37.65860000       4.08865000       1.83151000        0
Cl      20.12270000       4.47571000       4.30650000        0
Cl       8.74193000       0.79230500       0.26506300        0
H       16.05160000      24.62560000       4.14367000        0
H       37.51960000       4.73722000       2.93304000        0
H        3.11254000       5.69514000       8.22765000        0
C        9.54410000       5.27739000       3.15342000        0
C        8.66617000       6.31626000       3.06785000        0
C        9.41605000       4.49090000       5.78514000        1
C        9.30328000       3.97968000       4.26400000        0
Cl       7.83486000       3.85086000       1.58609000        0
C        7.62691000       3.05150000      10.42500000        1
C        6.60653000       3.96981000       9.98279000        1
C        6.85579000       5.20644000      10.54290000        0
C        5.97245000       6.39096000      10.03570000        0
Cl      11.17280000       3.76648000      13.96290000        0
C        4.78727000       4.55909000      14.69300000        0
C        4.48780000       5.75656000      14.69210000        0
C        5.05736000       2.08691000      15.08400000        0
C        5.22054000       3.47059000      15.46320000        0
Cl       2.26334000       7.01702000      17.89660000        0
Cl      17.92100000       1.77493000      13.20540000        0
H        1.09086000       7.41796000      17.51520000        0
C        1.07556000       6.25161000      21.51300000        0
C        2.25450000       6.26218000      22.31390000        0
C        3.48476000       6.42835000      21.86200000        0
C        4.81437000       6.40985000      21.46530000        0
Cl       2.58441000      10.48410000      14.93940000        0
H        4.67445000       4.96497000      19.88150000        0
C       12.44520000      26.18170000      21.45240000        0
C        9.23591000       7.27272000       2.36602000        0
C       12.88050000      25.31790000      19.24770000        0
C       13.08880000      25.28170000      20.57890000        0
Cl      12.25190000       0.38409700      20.63760000        0
Cl       8.10437000      12.63070000      23.63940000        0
H       10.84650000      25.64880000       0.60604000        0
C        3.25960000      10.96830000      11.26800000        1
C        1.98774000      10.49230000      10.94150000        1
C        1.76336000       9.09877000      10.27350000        1
C        0.57733300       8.18765000      10.42730000        0
Cl       3.08038000      12.25940000      12.31490000        0
H        1.37749000      11.00120000      11.57350000        0
H       11.91000000      11.82770000       7.29101000        0
H       37.75240000       8.62748000      11.06500000        0
C        8.70864000       7.56222000       8.24459000        0
C        9.26279000       8.69229000       9.00987000        0
C        8.15649000       6.90015000       5.90438000        0
C        8.15122000       7.79109000       7.06224000        0
C        6.62587000       7.51910000       9.77128000        0
C        5.67778000       8.66854000       9.41732000        0
C        6.35703000      10.13480000       9.11428000        0
C        7.09693000      11.02740000       8.21281000        1
Cl       4.48196000       8.26947000      13.12290000        0
Cl       1.52267000      15.82520000      14.91730000        0
H        9.79074000       5.93028000      15.09240000        0
H       10.12790000       9.25304000       8.63662000        0
C        4.72436000       9.24984000      15.86810000        0
C        4.21905000      10.40860000      15.63320000        0
C        4.41575000       7.11035000      14.83920000        0
C        4.51447000       7.85155000      16.07280000        0
Cl      37.64010000      10.78160000      14.98680000        0
H        4.13508000       7.49451000      17.16690000        0
C        5.56397000       7.62479000      21.28830000        0
C        6.42270000       8.37951000      20.52570000        0
C        7.37646000       9.16877000      19.71230000        0
C        8.73026000       7.33397000      19.10630000        0
H       17.80670000      10.21380000      15.16480000        0
C       11.88460000       9.18199000       1.91531000        0
C       12.07770000      10.43760000       1.57955000        0
C       10.60120000       7.03045000       2.27222000        0
C       11.93120000       7.81256000       1.99529000        0
H        6.75862000      18.80480000      20.49730000        0
C        8.47553000      16.27170000       3.32826000        0
C        8.16497000      17.56430000       3.48463000        0
C        8.53750000      18.59050000       2.61417000        0
C        9.41349000      18.97690000       1.67588000        0
C        8.32791000      13.19860000       5.05256000        0
C        8.08359000      13.24970000       3.71595000        0
C        8.63881000       8.73716000      10.27270000        0
C        7.51284000       8.18145000      10.64160000        0
Cl      14.74390000      17.72890000       2.98192000        0
Cl      15.96280000       8.48645000      23.99040000        0
Cl       2.80356000       5.88427000      11.41470000        0
H        7.42006000       8.07643000      11.77040000        0
H       17.28440000       6.15012000      24.66580000        0
C        6.57720000      12.46860000       8.26694000        1
C        6.76898000      13.30360000       7.32661000        1
C        5.79804000      14.29170000       7.24035000        1
C        5.70828000      15.56950000       6.46600000        1
H       13.08200000      22.77300000       8.73560000        0
H       11.16560000      21.74830000      10.44960000        0
C        5.67035000      13.93500000      13.85050000        0
C        5.22793000      14.99190000      13.16630000        0
C        4.98178000      11.56820000      14.97950000        0
C        5.38151000      12.66220000      14.72320000        0
Cl       8.55236000      14.08790000      14.01120000        0
H       36.35670000      19.37110000      15.11700000        0
C       15.19140000      11.74290000      13.58710000        0
C       14.45750000      12.80110000      13.36020000        0
C        4.86443000      21.85650000      18.98400000        0
C        3.78867000      21.06570000      18.78380000        0
Cl      12.64950000       8.19046000       9.84500000        0
Cl       7.82605000      10.07830000      25.12120000        0
Cl       5.23660000      22.48440000      20.63440000        0
H       15.09710000      13.67980000      13.86870000        0
H        3.12252000      20.81730000      19.64470000        0
H        3.47870000      20.33660000      17.94280000        0
C        8.89723000      11.30230000      24.49680000        0
C       14.79790000      16.08120000      18.90250000        0
C       11.58330000      10.81000000      24.25000000        0
C       10.20450000      11.17890000      24.31960000        0
H       15.02760000      15.06090000      18.78070000        0
H       13.16900000      12.20990000       1.56785000        0
C       17.17180000       8.33813000      25.12820000        0
C       17.67000000       6.94855000       0.20660500        0
C       14.10730000      23.78470000       1.83331000        1
C       13.07590000      22.98550000       2.51477000        1
H       17.23460000      17.93370000       5.92291000        0
H       12.03390000      23.25880000       2.28719000        0
C       14.88920000      20.12960000      10.21500000        0
C       14.38460000      20.11800000      11.50310000        0
C       14.19690000      18.65940000       8.47121000        0
C       14.97250000      18.76770000       9.63371000        0
H       15.62390000      17.81930000      10.05890000        0
C        9.20017000      12.10580000      11.43240000        0
C        9.31792000      12.78500000      10.32260000        0
C        9.25164000      14.02900000       9.78422000        0
C        9.09158000      14.92900000       8.80758000        0
H        9.37309000      12.35910000       9.32381000        0
H       23.59100000      17.69520000       7.76628000        0
H        7.70734000      21.54740000      19.11070000        0
C       15.30520000      16.25180000      13.18300000        0
C       15.84310000      16.70140000      14.09320000        0
C       13.43840000      15.39280000      11.38660000        0
C       14.84300000      15.89460000      11.79570000        0
Cl      12.02520000      15.36750000      12.27670000        0
C       14.39520000      20.39750000      16.29510000        0
C       13.00720000      20.93070000      15.82220000        1
C       11.92780000      21.68900000      16.33040000        1
C       12.24930000      22.12750000      17.61680000        1
Cl      15.54990000      20.98900000      17.65320000        0
Cl      20.75570000      18.71220000      22.04310000        0
H       17.72460000      21.72020000       0.92499200        0
H       13.77280000      23.64650000      22.17860000        0
C       17.36430000      18.61190000      20.24420000        1
C       17.99560000      19.97350000      20.23100000        0
C       16.19910000      16.64250000      19.52140000        1
C       16.33220000      17.87660000      19.43090000        1
Cl      11.95530000      20.79830000      22.45180000        0
Cl      10.28190000       6.66293000      18.61390000        0
H       15.98880000      18.57840000      18.58440000        0
C       13.45540000      21.60920000       3.08325000        1
C       14.85770000      21.32460000       3.27087000        1
C       15.90000000      22.30850000       2.93169000        1
C       15.43650000      23.70110000       2.36425000        1
H       14.54190000      19.32340000      12.17650000        0
C       12.09240000       0.26052800       4.72951000        1
C       12.42070000       1.55383000       4.64351000        1
C       13.78880000      26.89820000       5.94761000        1
C       12.51800000      26.64510000       5.23860000        1
Cl      10.51060000       0.10627300       3.85118000        0
Cl      14.29190000      25.81050000       7.46053000        0
H       11.81930000       2.23100000       4.24409000        0
H        6.74376000      27.27680000       0.87019500        0
H       12.39460000      25.66040000       5.40260000        0
C        9.45518000      15.94790000       8.02995000        0
C       10.01250000      16.52730000       7.05254000        0
C       10.34650000      17.84250000       6.54447000        0
C        9.56232000      19.05990000       6.76439000        0
Cl      10.22470000      16.16200000      14.82110000        0
Cl       2.22200000       8.72904000       5.02563000        0
H        3.91702000      13.85710000      10.20210000        0
H       18.85850000      24.42220000      11.77300000        0
H       10.80790000      22.59240000      12.22190000        0
C       14.88480000      19.61090000      15.26020000        0
C       13.59700000      19.07610000      14.68510000        0
C       16.70570000      17.61910000      14.67770000        0
C       16.21240000      18.86530000      15.03210000        0
Cl      16.14380000      15.54110000      10.80860000        0
Cl       8.23214000      15.21680000      18.50060000        0
Cl       8.42044000      22.63210000      18.74240000        0
H       13.46080000      18.17930000      13.97260000        0
H       12.80180000      26.35890000      18.84030000        0
C       12.62540000      21.39270000      18.61190000        1
C        9.18317000      24.15500000      15.46110000        1
C        8.79535000      25.41350000      15.80020000        1
C        7.94287000      26.07810000      14.92430000        0
Cl       7.66996000      15.80850000      24.25200000        0
Cl      23.14720000      20.57140000      16.82650000        0
H        8.78513000      23.88790000      14.58240000        0
H       14.39900000      19.22640000       0.20489500        0
C       18.61640000      23.22410000      18.43090000        0
C       18.15640000      24.49130000      18.66310000        0
C       17.84670000      20.92320000      19.35340000        0
C       18.42260000      22.08230000      19.14620000        0
Cl      17.38190000      25.13990000      21.53840000        0
Cl      10.14470000      25.33590000      19.32390000        0
Cl      12.56200000       7.54074000      17.43110000        0
H       16.54650000       0.26146000      24.14980000        0
C       17.22180000      22.46080000       3.05148000        0
C       17.82530000      23.77240000       2.63653000        0
C       16.65220000      24.55230000       2.09581000        0
C       16.82600000      25.78920000       1.78321000        0
Cl      16.58090000      27.02430000      23.06730000        0
Cl      16.43430000      22.38550000       6.59563000        0
Cl       1.76053000       2.94996000      23.26660000        0
H       15.74520000      26.26870000       1.43242000        0
C       13.41290000       2.37238000       9.85712000        0
C       14.52450000       2.85119000       9.35950000        0
C       13.72670000       1.91728000       5.32349000        1
C       14.48490000       0.60588300       5.80624000        1
Cl      12.33840000       3.49086000      10.69920000        0
Cl      14.42400000       3.29517000       5.96028000        0
H       15.64730000       2.70743000       9.21895000        0
H       15.55010000       0.64650200       6.04023000        0
C        9.72864000      20.26170000       5.99517000        0
C       10.43520000      20.48390000       4.90902000        0
C       11.42980000      20.77620000       4.23660000        0
C       12.29620000      20.87730000       3.22084000        0
Cl       8.11130000      21.31270000       5.61884000        0
H       12.27720000      19.86680000       2.71232000        0
C       10.91220000      21.67360000      14.24860000        1
C       10.67930000      22.05690000      15.63760000        1
C       12.49850000      20.01170000      14.92220000        1
C       11.71110000      20.66450000      13.90090000        1
Cl      12.69110000      12.13690000      13.22260000        0
C        7.75294000      25.72950000      13.48740000        0
C        7.67611000      26.76540000      12.70080000        0
C        7.64906000       0.54577300      13.36790000        0
C        7.64148000       0.06784000      14.76060000        0
Cl       7.81666000      26.59990000      10.86180000        0
Cl      18.06830000      25.25130000       6.93272000        0
C       16.88790000      27.40960000      18.67270000        0
C       15.95480000       0.90101100      18.95360000        0
C       17.81010000      25.25800000      19.73940000        0
C       16.81770000      26.28980000      19.35360000        0
H       15.50090000       0.28911100      19.67480000        0
H       16.07510000      26.61370000      20.30600000        0
C       17.58030000      26.68950000       1.22030000        0
C       18.98580000      26.60390000       0.77475900        0
C       19.39460000       0.29873400       0.06863400        0
C       17.28050000       0.66171400       0.93220200        0
H       18.73080000      23.38790000       1.80605000        0
H       17.54230000       2.79931000       9.39759000        0
H       16.40840000       1.29672000       0.95456700        0
C       16.26280000       4.43416000      10.52660000        0
C       13.40520000       4.78163000       8.35991000        0
C       14.34040000       4.15269000       9.14049000        0
C       15.54080000       4.96374000       9.55518000        0
Cl      16.54150000       5.65230000       8.34730000        0
H       20.27140000      26.49620000      11.42350000        0
C       16.00620000       2.81979000      16.52010000        0
C       16.19730000       2.46769000      15.35380000        0
C       17.05950000       2.91011000      14.09370000        0
C       16.97420000       4.49016000      11.76760000        0
Cl      20.55160000       1.81413000      15.27910000        0
C       10.22710000      25.27220000      17.41280000        1
C        9.35241000      26.15080000      16.79070000        1
C       10.34940000      23.57790000      15.97780000        1
C       11.16400000      24.31630000      17.00730000        1
H        8.82611000      26.67820000      17.54420000        0
C        6.65882000       0.58952600      15.49300000        0
C        6.01914000       1.35768000      16.24710000        0
C        5.85302000       2.18485000      17.39680000        1
C        5.93689000       1.94571000      18.64610000        1
H       20.53870000       1.10709000      19.01500000        0
H        6.23254000       0.92216200      19.08400000        0
C       15.18360000       4.59990000      17.80750000        0
C       13.97310000       5.33157000      17.46410000        0
C       15.36930000       2.33076000      18.76710000        0
C       15.74280000       3.22511000      17.74190000        0
Cl      10.17670000      17.26320000      21.24970000        0
H       12.32580000      20.29000000      18.52790000        0
C       18.55530000       1.29794000       0.80705300        0
C       18.83160000       2.73217000       0.96713600        0
C       17.86210000       3.68092000       1.68041000        0
C       18.17770000       4.91033000       1.90758000        0
Cl      17.78350000       3.25566000      22.40320000        0
Cl      15.54930000       8.16871000       5.84330000        0
H       19.76400000       2.34524000       4.85272000        0
C       12.04640000       7.68533000       6.45586000        0
C       12.25900000       8.64316000       5.47616000        0
C       13.09620000       6.01717000       7.93947000        0
C       12.53480000       6.75316000       6.93297000        0
Cl      16.18160000      10.63240000       8.45682000        0
Cl      11.61300000      13.92230000       8.48202000        0
H       15.29360000       7.15823000       4.83037000        0
C       16.19180000       4.06484000      13.15470000        0
C       14.95000000       4.28272000      13.34270000        0
C       13.92510000       4.90592000      13.60210000        0
C       12.91490000       5.94326000      13.88020000        0
Cl       4.49562000      16.38800000       3.58783000        0
H       12.00660000       0.84021200      17.17280000        0
H       13.29870000       7.03298000      14.14220000        0
C       19.34780000      12.13910000      16.87650000        0
C       19.93790000      11.44310000      15.64790000        0
C       17.12780000      11.59900000      18.16860000        0
C       18.50630000      11.72850000      18.03730000        0
Cl      21.11050000      12.63970000      13.40910000        0
H       19.48580000      10.59670000      15.40650000        0
H        7.73468000       6.96919000      19.03760000        0
C        5.05031000       2.81384000      19.39700000        1
C        5.04301000       4.14840000      19.01490000        1
C        5.45759000       4.41874000      17.82270000        1
C        5.55438000       3.50818000      16.88490000        1
Cl       5.63440000       2.77483000      20.96280000        0
Cl      11.23230000      25.95480000      22.57120000        0
Cl      21.64060000      14.99160000      15.62690000        0
Cl       6.38569000       5.86213000      17.34890000        0
H       17.39930000       7.02087000      20.77690000        0
H       10.32020000       2.80058000      17.74190000        0
C       15.52020000       8.52271000      19.15020000        1
C       14.80290000       8.80909000      20.58130000        1
C       13.99880000       6.73613000      18.01700000        0
C       15.21120000       7.18399000      18.47920000        0
Cl      35.51240000       2.47802000      21.05010000        0
H        8.87757000       8.13437000       1.90855000        0
H       15.55140000       9.64228000      17.26490000        0
C       17.86150000       6.19432000       2.48104000        0
C       18.09460000       7.28027000       1.66961000        0
C       17.82750000       8.61036000       1.87790000        0
C       18.04860000       9.39063000       3.01742000        0
Cl      24.02080000      17.46280000       0.61587300        0
C       12.47110000      12.04940000       6.32585000        0
C       12.82160000      13.42240000       5.98950000        1
C       13.06000000       9.62457000       5.67892000        0
C       13.47410000      10.86820000       5.84185000        0
Cl      16.54720000       2.73423000       2.77716000        0
H       14.39770000      11.41170000       5.66235000        0
C       11.66910000       5.39040000      14.35460000        0
C       10.65070000       6.38898000      14.89740000        0
C       10.59060000       7.81687000      14.64040000        0
C       11.27100000       9.09900000      14.59420000        0
Cl      12.59450000       4.71381000      16.60540000        0
H       18.66340000       9.94115000      11.36480000        0
H       12.34780000       9.60663000      14.62480000        0
C       20.15280000      13.20620000      17.05510000        0
C       20.12630000      13.91920000      18.29540000        0
C       21.21550000      12.32360000      15.02220000        0
C       21.20300000      13.33810000      16.09080000        0
Cl       0.44108100       6.76746000       9.53203000        0
C       17.98330000       8.63888000      16.51150000        0
C       17.26530000       9.36398000      15.54550000        0
C       16.01780000       9.49346000      14.68420000        0
C       15.68860000      10.64270000      14.18700000        0
Cl      15.70050000      25.71370000       4.66913000        0
Cl      21.72120000      16.24380000      20.57050000        0
H       19.69160000      15.65670000      14.07890000        0
H       16.08730000       7.17676000      10.87020000        0
C       12.06980000       8.59262000      23.26880000        1
C       12.26190000       9.99505000      23.56450000        1
C       13.82130000       8.71708000      21.62620000        1
C       12.65250000       8.06349000      22.05120000        1
Cl      18.09890000       8.68232000      19.61560000        0
H        3.38437000      12.28950000      19.10300000        0
C       13.76090000      13.67630000       5.01905000        1
C       17.58510000      10.57560000       2.48203000        0
C       17.11200000      10.69910000       0.85466800        0
C       17.39580000       9.39322000       0.64272500        0
Cl      21.41130000      11.90240000       5.58929000        0
H       20.30070000      26.89350000       8.67041000        0
C       13.27850000      16.75600000       7.74439000        0
C       14.37140000      17.61470000       7.38335000        0
C       12.61930000      14.41030000       7.13926000        1
C       13.07260000      15.58580000       6.97668000        1
Cl       9.85203000      14.04710000       5.31113000        0
C       10.20330000       8.99729000      13.77330000        0
C        9.68789000       9.71939000      12.76190000        0
C        9.66552000       9.33192000      11.29780000        0
C        9.61774000      10.82810000      11.85920000        0
H        8.98492000      12.40670000      12.46810000        0
C       20.32180000      17.46560000      18.52710000        0
C       13.57550000      13.98730000      10.66840000        0
C       20.24040000      15.01840000      18.81990000        0
C       20.68340000      16.32300000      19.18160000        0
Cl      21.20090000      19.07350000      18.80410000        0
Cl      20.29560000      12.95590000      22.90380000        0
H       18.47310000       9.22327000      17.22210000        0
C       16.22460000      13.61470000      20.89360000        1
C       17.19520000      14.71330000      21.18950000        1
C       17.18020000      15.97810000      20.48430000        1
C       18.22280000      16.51030000      21.20480000        1
C       16.01070000      15.04060000       1.05083000        1
C       15.67640000      16.30150000       0.86939900        1
C       15.11150000      16.97480000      25.29200000        1
C       15.22620000      18.52950000       0.07532090        0
Cl      12.17900000      16.89990000       9.09236000        0
C       14.32240000      15.91340000       6.13668000        1
C       15.11970000      16.97740000       6.52561000        1
C       16.39220000      17.25560000       5.99552000        1
C       13.62940000      19.99680000       8.19884000        0
H       13.27400000      20.35740000       7.23544000        0
C       23.22460000      18.45330000       8.66106000        0
C       23.09560000      19.78240000       9.05882000        0
C       23.09810000      16.79480000      10.91390000        1
C       22.34650000      17.66130000       9.93202000        1
Cl      13.97820000      23.22760000       6.66852000        0
Cl      10.20480000      12.95550000       1.92872000        0
H       13.58640000      20.70240000      11.58080000        0
C       20.10310000      17.59490000       9.35343000        0
C       20.14080000      18.54610000      10.42550000        0
C       19.04100000      19.43050000      10.97110000        1
C       18.35350000      20.25850000      10.13620000        1
Cl      12.14790000      24.97360000      11.05970000        0
C       20.58230000      22.13550000      13.12230000        0
C       20.68350000      23.44760000      12.87600000        0
C       19.53640000      19.98410000      12.17410000        1
C       19.92480000      21.32160000      12.25880000        1
Cl      21.38990000      21.12180000      14.66170000        0
H       17.77470000      20.38850000       9.26305000        0
C       18.14230000      17.86320000      21.21470000        1
C       19.17650000      18.84830000      21.66210000        0
C       18.96650000      20.28350000      21.36440000        0
C       19.92330000      21.25710000      21.46600000        0
Cl      17.87130000      14.61280000      14.60220000        0
C       18.24080000      18.46220000       1.26640000        0
C       19.65930000      18.70200000       1.19757000        0
C       15.87080000      17.67090000       1.66925000        0
C       17.15500000      18.01130000       1.50780000        0
Cl      20.73720000      18.04700000       2.41738000        0
H       14.78210000      16.38620000      17.76410000        0
C       14.09050000      20.84190000       9.17592000        0
C       13.76840000      22.26820000       9.41542000        0
C       14.22790000      22.99460000      10.64920000        0
C       13.90360000      24.34380000      10.70080000        0
H       19.42450000      17.38220000       6.04713000        0
H        8.71615000      19.02940000       7.42257000        0
C       22.68060000      23.30230000       8.50690000        1
C       23.94710000      23.62420000       7.44495000        1
C       23.39390000      21.15640000       8.23740000        1
C       22.37380000      22.00930000       8.63793000        1
Cl      12.90080000       0.67939800      10.28470000        0
Cl      30.52500000      26.31100000       3.88224000        0
C       19.52710000      22.34120000      11.07180000        1
C       20.02760000      23.76190000      11.55170000        0
C       18.37600000      21.62090000      10.32540000        1
C       17.76960000      22.67700000       9.56171000        0
Cl      18.00140000      20.88940000       3.31830000        0
H       22.27230000      23.65470000      11.33430000        0
H       17.09380000      22.68220000       8.78353000        0
C       21.92760000      26.42290000      15.59530000        0
C       21.87340000      26.95150000      16.63700000        0
C       21.31220000      24.38370000      13.73560000        0
C       21.67560000      25.33260000      14.55960000        0
C       20.94270000      21.74990000      21.06750000        0
C       22.45870000      21.61820000      20.64330000        0
C       22.89290000      22.97310000      20.53200000        1
C       22.56020000      23.86440000      21.62210000        1
Cl      20.98770000      22.06780000       2.26552000        0
H       22.98500000      21.84640000      17.49460000        0
H       22.33970000      23.23520000      22.56270000        0
C       21.38750000      22.00630000       0.57880300        0
C       22.14540000      23.01490000      25.18680000        0
C       20.26100000      19.68860000       0.70773400        0
C       20.71380000      20.72190000      25.24460000        0
Cl      17.99500000      22.35190000      25.19430000        0
H       22.17920000      23.91750000       0.26183500        0
H       18.03430000      25.26110000      17.98890000        0
H       21.30670000      20.25180000      24.59170000        0
C       14.73120000      25.22500000      11.45030000        0
C       15.48650000      26.34120000      11.49330000        0
C       15.84360000       0.26844100      11.43230000        0
C       16.57670000       1.17273000      10.81460000        0
Cl      23.20490000       4.07052000       0.20470900        0
H       16.71190000       2.25239000      11.18140000        0
C       22.79390000      27.06840000       7.36309000        1
C       22.11250000       0.45132200       8.33732000        1
C       23.78620000      24.92610000       7.31846000        1
C       22.70010000      25.70700000       7.66229000        1
C       14.08600000      25.77840000      15.89300000        1
C       15.28260000      25.07720000      15.94570000        1
C       15.68910000      24.52740000      14.59210000        1
C       14.43080000      24.06270000      13.90450000        1
H       16.02720000      25.18730000      16.72500000        0
H       14.63080000      23.63190000      13.05260000        0
C       21.91120000       2.93056000      17.52790000        0
C       22.15710000       4.23960000      17.98520000        1
C       21.64730000       0.45411100      17.58940000        0
C       21.49840000       1.92315000      17.01030000        0
C       21.96700000      25.18600000      21.25400000        1
C       21.07790000      26.15480000      22.04090000        0
C       20.87850000      27.20780000      21.15550000        0
C       20.02310000       0.82148900      21.54630000        0
Cl      24.31720000      24.01030000      24.60440000        0
H       13.74090000      26.40790000      16.75090000        0
C        6.55800000       2.87747000       7.80147000        1
C        6.22974000       2.30519000       6.54746000        1
C       23.26610000      22.49250000      24.61620000        0
C        5.94271000       3.82341000       8.58793000        1
Cl      16.98900000      23.80240000      14.23080000        0
Cl      23.64720000      21.11130000      23.81080000        0
H        9.31737000       1.88963000      12.71480000        0
C       17.60180000       0.90930000       9.57566000        0
C       17.90250000       1.92280000       8.82431000        0
C       17.94760000       1.99670000       7.46071000        0
C       18.03910000       0.92685500       6.62954000        0
Cl      18.36170000      26.87350000       9.45233000        0
Cl      18.21940000       3.48956000       6.67467000        0
H       18.25950000      27.15960000       6.89411000        0
H       17.39110000       0.66275700       4.17351000        0
C       24.46640000       3.39884000       7.57041000        0
C       24.16450000       4.64146000       8.01364000        0
C       22.45910000       1.66102000       8.70014000        1
C       23.39520000       2.17488000       7.61265000        1
Cl      11.51950000      17.70990000       5.08238000        0
H       25.06090000       5.30496000       7.89935000        0
H       22.35810000       2.26998000       9.82663000        0
C       11.22670000      22.76850000      13.19420000        0
C       11.97810000      23.79880000      13.43060000        0
C       12.98570000      24.27510000      14.21460000        1
C       12.94700000      25.46890000      15.02580000        1
C       21.40080000       8.77542000      20.15010000        1
C       20.50750000       7.79053000      20.81800000        1
C       21.31760000       4.61054000      19.07120000        1
C       21.31970000       6.02472000      19.37160000        1
Cl      21.64080000      10.00860000      21.21840000        0
H       19.91540000       2.51503000      24.25060000        0
H       37.18520000       2.05878000      16.80830000        0
C       20.00630000       2.20973000      21.17010000        0
C       19.26220000       3.31319000      21.40350000        0
C       19.75120000       4.46354000      20.78170000        1
C       19.08570000       5.56514000      20.69030000        1
Cl      17.39890000      27.22660000      16.98450000        0
C       16.30170000      14.00620000       3.61433000        0
C       16.53140000      12.48380000       4.08839000        0
C       16.69940000      16.09780000       5.00211000        1
C       15.81570000      15.25180000       4.46638000        1
H       13.87540000      12.94820000       4.18187000        0
C       18.28860000       0.96055500       4.97378000        0
C       19.74000000       1.14889000       4.69871000        0
C       20.57790000       0.03706130       4.29877000        0
C       21.81370000       0.31948300       3.83701000        1
Cl      18.53820000      15.87670000       4.56435000        0
C       23.22320000       5.39380000      10.15750000        0
C       23.02320000       6.65705000      10.67560000        0
C       22.84620000       4.84564000       8.91427000        0
C       21.44380000       4.84804000       8.91534000        0
Cl      24.44600000       5.35878000       4.51473000        0
H       12.11370000       8.36688000       4.34504000        0
H       20.99710000       4.95184000       9.84059000        0
C       12.06800000      26.62300000      15.24510000        0
C       11.77600000       0.43804000      15.93750000        0
C       18.65660000      13.74000000       9.02696000        0
C       19.03330000      12.52680000       9.37240000        0
Cl      10.88660000      26.71560000      13.93710000        0
Cl      27.59480000      11.55490000      15.38020000        0
H       10.67920000       0.45534000      15.87040000        0
C       18.82160000       9.99304000      22.50190000        0
C       17.98750000      10.79760000      22.32290000        0
C       20.25910000       8.01647000      22.42940000        0
C       19.33060000       8.76616000      23.04040000        0
Cl      16.16470000      12.18850000      16.53230000        0
Cl      21.25330000       6.55730000      22.82170000        0
H       19.22590000       8.58924000      24.19590000        0
C       20.16070000       6.54866000      20.28200000        1
C       17.78680000       6.04625000      20.42490000        0
C       16.98990000       5.45004000      19.39230000        0
C       15.83460000       5.89661000      18.63000000        0
Cl      21.23680000       0.38564000      25.17050000        0
Cl      18.11920000       4.52488000      18.49810000        0
C       16.61290000      11.94590000       0.78719400        1
C       15.99840000      12.68130000      25.17060000        1
C       16.97110000      11.78180000       3.02392000        0
C       16.80990000      12.68850000       1.99513000        1
Cl      14.60970000       8.64676000      15.35240000        0
C       22.32570000       1.61581000       4.23622000        1
C       23.79520000       0.29339600       2.36044000        1
C       24.32130000       1.44722000       2.49655000        1
C       23.43690000       2.08769000       3.37441000        1
Cl      24.74560000      26.57970000       1.30950000        0
H       23.24030000      25.04240000       2.15419000        0
H       18.78140000      26.47740000       4.10535000        0
C       23.27580000      10.07460000      10.69530000        0
C       22.76090000      11.19680000      10.43590000        0
C       23.13480000       7.75577000      11.34650000        0
C       23.97620000       8.88017000      11.21070000        0
Cl      22.03630000       9.69378000       7.83577000        0
Cl      27.67140000       7.48416000      13.96520000        0
H       24.90240000       8.94892000      10.97270000        0
C       18.84770000      11.37850000       9.93318000        0
C       18.70690000      10.12630000      10.33570000        0
C       22.11480000      11.37460000       8.14636000        0
C       21.90730000      12.31740000       7.20387000        0
Cl      16.33610000       7.83847000      12.01540000        0
H       24.29960000      10.50530000      13.98890000        0
C       18.23420000      14.43740000      22.17350000        1
C       18.91760000      15.65080000      22.07660000        0
C       17.76840000      12.20960000      21.84110000        1
C       18.71310000      13.21500000      22.31930000        1
Cl      19.06840000      17.72580000      17.48920000        0
H       20.03770000      15.50920000      21.99630000        0
C       15.54740000       9.74266000      18.36370000        1
C       16.02330000      10.95930000      19.03780000        1
C       16.11160000      11.00010000      20.50610000        1
C       16.53240000      12.33590000      21.11180000        1
H       13.85760000      13.33740000      11.47240000        0
C       14.75120000      14.69720000      24.42230000        1
C       14.34260000      16.11520000      24.48940000        1
C       15.73110000      14.19460000      25.33940000        1
C       16.37710000      13.98290000       2.26966000        1
Cl      21.95790000       7.01553000       4.42478000        0
C       22.39420000       2.98275000       4.38723000        0
C       21.91370000       4.38520000       4.21955000        0
C       22.72660000       5.42411000       4.27423000        0
C       14.62230000      15.09060000       5.05212000        1
Cl      16.97020000       6.41682000       4.02129000        0
H       23.47650000      13.47560000      23.66050000        0
C       22.44330000      14.65660000       9.61625000        1
C       23.02380000      15.43270000      10.59260000        1
C       22.56240000      12.11040000       9.37655000        0
C       22.15560000      13.43010000       8.99138000        0
C       21.64490000      13.63340000       7.71789000        0
C       21.56180000      15.06950000       7.38240000        0
C       21.61010000      15.70400000       8.62640000        1
C       21.23960000      16.90710000       9.00177000        1
H       21.24670000      15.57230000       6.43830000        0
C       19.12470000      18.10970000      13.94220000        0
C       19.67050000      19.01010000      13.25420000        0
C       18.63120000      16.03090000      14.46330000        0
C       18.04470000      17.35090000      14.37950000        0
Cl      18.25460000      23.06530000      16.61360000        0
H       12.58950000      13.93910000      10.28560000        0
1442
Lattice="35.166031176 0.0 0.0 0.0 25.4704786163 0.0 0.0 0.0 23.5652886239" Properties=species:S:1:pos:R:3:ring:I:1 timestep=16159 pbc="T T T"
C       20.90280000      15.25900000      15.61410000        1
C       21.22630000      16.54290000      15.75650000        1
C       22.26210000      17.27570000      15.02850000        1
C       22.92780000      18.45060000      15.19040000        1
Cl      20.20690000      14.78310000      16.92090000        0
Cl      15.19060000      24.71540000      21.68280000        0
C       28.01090000      13.88360000      20.76760000        1
C       24.91760000      20.31290000      21.43500000        1
C       27.41490000      16.39050000      20.74340000        1
C       28.20170000      15.39320000      21.11440000        1
C       24.33850000      19.11350000       3.11130000        0
C       24.33960000      20.46480000       2.63010000        0
C       16.58000000      21.77180000      23.50710000        0
C       17.28860000      21.69140000      22.48280000        0
Cl      24.91030000      17.75980000       2.56285000        0
Cl       9.39117000      16.48940000      15.46420000        0
C       23.49080000      20.80830000       4.67417000        0
C       23.68060000      21.50270000       3.54065000        0
C       22.90830000      19.64380000       6.59303000        1
C       23.06430000      21.01460000       6.06097000        1
H       27.20860000      19.68650000       9.46142000        0
C       18.26910000      16.19950000      10.58050000        0
C       20.66930000      17.31930000       9.59589000        1
C       20.58390000      18.70070000       8.84359000        1
C       20.28710000      20.30790000       8.97248000        1
C       23.69320000      18.82120000      14.14350000        1
C       24.34880000      20.05080000      14.20840000        1
C       23.55820000      17.06880000      12.75500000        1
C       23.84350000      18.41960000      12.82750000        1
Cl      30.11900000       2.83724000       2.27410000        0
H       34.88080000      21.47770000      18.09020000        0
C       22.63710000      19.40960000      16.16970000        1
C       23.51300000      20.68090000      16.24100000        1
C       23.47410000      21.88210000      17.09150000        0
C       23.76400000      19.74560000      20.77720000        1
H       21.72880000      16.09860000      18.93500000        0
C       24.11490000       1.19726000      22.05200000        0
C       23.85600000       2.39335000      22.22100000        0
C       23.28840000      17.55780000      19.15800000        0
C       24.91880000       0.14915800      22.50420000        0
C       20.24240000      21.64110000       2.69522000        0
C       20.18680000      20.17660000       3.04296000        1
C       20.23500000      19.20290000       2.06934000        1
C       19.89870000      19.22470000       0.71635700        1
H       19.93420000      20.09890000      23.30140000        0
C       22.25950000      25.25670000       4.40370000        0
C       23.05390000       0.47646500       3.42657000        0
C       23.22940000      22.85070000       3.62505000        0
C       22.49420000      23.83820000       4.44153000        0
Cl      29.54390000      22.28480000       2.41983000        0
C       19.49260000      21.27610000       9.62095000        1
C       19.60670000      22.64880000       9.00663000        1
C       20.90350000      22.87940000       8.14773000        1
C       21.11130000      24.15070000       7.32667000        1
H       26.14530000      25.01100000      16.42340000        0
C       26.04300000      24.29940000      14.20690000        1
C       28.20570000       0.01023170      13.87690000        1
C       27.08220000      23.40660000      13.64420000        1
C       26.15820000      22.72850000      14.52240000        0
C       22.49710000      20.59770000      21.10930000        0
C       21.45030000      20.53150000      19.49380000        0
C       21.68670000      21.88160000      18.81980000        0
C       23.33810000      23.74590000      18.17970000        0
C       22.55110000       6.88861000      21.17730000        0
C       21.84760000       5.17394000      23.04600000        1
C       23.91480000       3.58299000      21.67630000        0
C       22.60180000       5.68945000      21.96160000        0
H       19.31170000       5.77080000      22.63220000        0
C       19.73900000      18.14300000      23.53000000        1
C       19.51200000      16.60680000       0.35749300        1
C       19.77570000      16.25930000       1.49738000        1
C       19.99990000      17.42060000       2.44391000        1
H       18.39710000      14.85670000       0.64149600        0
C       24.84080000       0.76178300       5.59448000        0
C       26.60610000      11.82590000       2.93342000        0
C       24.52640000       0.83917800       3.13400000        0
C       25.33190000       0.80260200       4.45447000        0
Cl      20.34350000       1.59931000      16.00980000        0
H       25.62170000      10.87880000       4.70018000        0
H       23.80570000      23.09500000       2.75055000        0
C       20.45400000       2.28221000       6.87929000        0
C       19.44110000       3.29618000       7.44206000        1
C       20.21140000       2.25065000       8.28204000        1
C       19.44600000       1.05998000       8.83288000        1
C       25.79990000       0.90885900      14.88620000        1
C       25.43470000       0.52218800      16.10490000        1
C       28.95020000      24.51920000      13.36210000        1
C       26.84160000      25.33970000      14.44140000        1
H       21.44670000       2.44936000       8.68296000        0
C       21.44590000      25.21190000      19.43950000        1
C       21.09410000       1.23677000      19.39300000        1
C       20.49700000       5.18153000      23.17570000        1
C       18.78900000       3.19792000      23.55410000        0
C       23.64720000       6.83034000      20.21690000        1
C       23.39920000       7.73936000      19.28320000        1
C       23.41690000       4.75244000      21.28890000        0
C       24.12880000       5.53713000      20.13180000        1
Cl       4.02908000      16.51660000      21.99420000        0
H       22.71580000       8.75024000      20.02640000        0
C       19.78680000      17.43630000       3.78399000        1
C       19.83350000      18.46910000       4.76447000        1
C       19.89510000      19.98160000       4.47535000        1
C       19.60530000      21.45310000       5.02922000        0
H       19.91170000      16.57030000       4.42602000        0
C       29.11480000      11.77640000       5.19446000        0
C       29.36530000      12.79810000       4.31366000        1
C       26.59540000      11.45970000       4.47771000        0
C       27.74140000      11.23640000       5.49133000        0
H       25.19080000      12.49370000       5.30817000        0
C       18.13070000       1.27029000       9.20244000        1
C       17.38560000       2.58141000       8.45406000        1
C       18.08910000       3.29554000       7.49584000        1
C       19.87040000       4.69457000       6.83698000        0
Cl      22.22660000      25.39430000      13.34670000        0
C       23.13490000       2.90542000      17.42370000        1
C       22.54620000       4.02344000      17.10230000        1
C       24.26050000       1.05816000      16.77050000        1
C       23.88200000       2.38161000      16.58760000        1
C       16.25540000       0.96689400       1.30843000        1
C       15.63110000       1.51232000       0.16562500        1
C       15.26770000       3.33572000      21.85880000        1
C       17.19930000       1.78614000      21.44480000        1
Cl      17.44430000      11.88790000      11.55920000        0
C       25.07140000       5.69323000      16.41780000        0
C       25.68890000       6.88240000      16.02050000        1
C       24.68620000       5.12608000      19.07520000        1
C       24.24990000       5.87767000      17.83420000        1
Cl      14.79620000      22.55320000       1.54633000        0
H       17.55160000       5.50225000       0.82029800        0
C       19.87340000      22.21820000       3.99704000        0
C       19.75370000      23.52660000       3.82534000        1
C       20.39640000      22.76150000       1.76412000        0
C       20.06180000      23.90780000       2.48334000        1
C       26.67390000      14.01440000       1.83165000        1
C       25.64360000      13.38380000       1.41803000        0
C       28.46980000      13.42710000       3.46233000        1
C       27.55660000      12.92720000       2.69610000        1
Cl      32.26090000      19.65320000       2.12803000        0
C       21.39240000       6.34964000       6.77437000        0
C       21.53380000       7.68737000       6.60846000        0
C       22.60400000       6.05210000      13.27390000        0
C       21.98870000       7.12637000      13.68280000        0
Cl      22.11770000      20.33650000      22.77740000        0
C       20.96240000       6.61342000      16.59000000        0
C       20.92580000       7.36656000      15.67850000        0
C       21.44680000       4.62994000      18.17320000        1
C       20.89060000       5.83660000      17.85860000        1
C       15.96540000       4.50473000      21.36450000        1
C       19.89070000       4.05538000       0.27341100        1
C       21.41360000       7.06423000       3.85649000        0
C       17.47790000       3.44170000      23.02170000        0
C       27.79980000      10.72610000      20.01430000        1
C       27.15050000      11.27110000      18.86300000        1
C       25.98390000       8.26659000      16.50160000        1
C       27.70490000       8.54459000      18.47230000        1
Cl      28.57830000      21.36280000      21.19420000        0
Cl      21.85310000      10.16850000      16.15500000        0
Cl       9.60534000       3.95179000      21.07980000        0
H       27.98950000      13.15980000      21.72420000        0
C       19.73070000      25.24690000       2.04123000        1
C       18.97410000      24.56850000       4.43495000        1
C       21.68710000       7.96900000      21.62420000        0
C       19.97020000       7.33100000       4.05599000        0
C       25.01660000       9.67176000       1.38096000        0
C       24.63840000       7.08490000       1.86869000        0
C       25.51330000      11.97920000       2.08915000        0
C       25.18280000      10.98580000       1.19143000        0
H       16.55800000      13.40280000      15.71760000        0
C       19.43090000       7.43662000      13.59370000        0
C       19.18520000       8.55988000      12.83830000        0
C       20.02640000       9.72263000      12.81430000        0
C       19.86210000      11.21480000      13.01330000        0
Cl       8.20584000      11.21540000      21.19030000        0
C       21.16220000      10.58530000      14.62570000        0
C       20.72060000      11.69860000      13.96210000        0
C       20.84130000       7.89100000      14.25380000        0
C       20.80760000       9.41909000      13.80490000        0
C       19.32970000       7.68524000       2.94165000        0
C       19.47380000       9.24421000      22.25440000        0
C       20.41580000       8.36334000      21.56050000        0
C       18.51600000       9.58141000      23.33840000        0
C       26.87950000      14.96050000      19.16110000        1
C       26.54770000      16.12600000      19.66160000        1
C       26.92580000      12.68930000      18.89280000        1
C       27.38710000      13.82380000      19.60690000        1
C       19.06500000       8.04834000       1.77624000        0
C       16.84000000       5.90241000      23.49900000        1
C       15.92500000      21.32310000       0.88059900        0
C       23.91230000      19.36860000       4.51165000        0
Cl      18.31500000      13.37050000       3.08386000        0
C       23.11520000      17.28420000       6.32244000        1
C       23.15310000      18.63830000       5.63165000        1
C       24.95520000       8.48044000       1.75179000        0
C       23.61720000       7.23651000      17.88300000        1
Cl      24.56930000      21.21340000       1.17302000        0
H       20.27220000      12.81020000       9.30759000        0
H       22.92160000       7.37836000      16.85240000        0
C       19.20500000      12.22960000      12.37330000        0
C       19.44530000      13.59370000      12.92050000        0
C       18.90290000      14.76420000      12.23090000        0
C       18.96270000      15.01350000      10.88820000        0
C       22.08460000      15.21000000      13.54130000        1
C       22.77430000      16.44280000      13.84310000        1
C       20.38440000      13.43140000      14.13390000        0
C       21.22830000      14.46240000      14.47230000        1
Cl      25.35880000      11.83150000      14.19860000        0
C       26.29300000      10.40750000      17.83970000        1
C       25.39110000      11.19080000      16.82490000        1
C       24.92300000      12.54900000      17.27260000        1
C       25.77260000      13.23940000      18.16890000        1
H       34.84030000      18.73550000      19.23940000        0
C       31.55150000      13.70730000      20.87120000        0
C       28.36590000      18.25790000      22.05800000        0
C       30.19230000      11.47630000      21.02580000        0
C       30.93220000      12.55110000      20.86720000        0
Cl      28.92390000      15.89020000      22.55440000        0
C       31.05630000      17.61060000       3.82988000        0
C       30.93980000      18.68910000       2.67243000        0
C       28.82840000      18.81340000       5.14794000        0
C       28.43750000      17.64680000       4.27057000        0
H       34.07100000      22.26420000      11.77490000        0
H       27.60120000      16.95850000       4.44099000        0
C       33.07160000      21.21060000       6.11577000        1
C       34.51180000      20.85340000       6.70113000        1
C       32.79080000      19.01580000       4.94728000        1
C       32.44850000      20.32960000       5.13667000        1
Cl      20.83950000      17.68190000      11.28860000        0
C       24.14050000      15.66330000       7.87766000        0
C       24.52330000      14.41330000       8.17957000        1
C       25.14320000      13.36560000       7.41209000        1
C       24.52760000      13.00430000      10.21160000        1
C       24.91090000      11.87820000       9.59529000        1
C       23.81200000      15.78950000      10.18030000        0
C       26.45930000      11.02770000       7.80654000        0
C       25.40490000      12.20510000       8.20442000        1
C       25.63390000      14.63640000      18.30340000        1
C       24.72230000      15.47140000      17.61150000        1
C       24.37700000      16.57840000      18.74600000        1
C       25.60740000      17.01620000      19.32260000        1
Cl      23.18710000      13.17790000      16.84170000        0
C       26.25290000      18.71320000      21.13420000        1
C       26.29250000      20.03620000      21.67430000        1
C       28.98170000      19.07490000      23.08710000        0
C       27.46310000      17.79450000      21.26720000        1
Cl      16.72290000      19.76780000       4.05419000        0
H       26.31550000       1.25425000       0.60244000        0
C       28.46620000      19.12240000       6.64239000        0
C       27.78090000      20.27610000       7.40709000        0
C       27.18530000      21.02280000       6.39886000        0
C       32.45640000      22.41580000       0.44663900        1
H       32.24410000      21.45790000       0.94459100        0
C       33.81570000      23.16090000       3.54877000        0
C       34.36950000      23.66640000       2.09583000        0
C       33.14120000      22.62800000       5.95289000        0
C       33.34630000      23.14550000       4.65594000        0
Cl      28.42290000       4.85508000       7.29150000        0
C       24.27540000      14.25640000       9.67459000        1
C       24.07940000      16.45590000       9.11983000        0
C       24.31370000      17.81640000       9.22939000        0
C       24.38970000      19.71020000      12.57000000        0
Cl      20.51570000       3.00153000       4.36552000        0
C       30.41660000       0.00297811      10.46420000        0
C       29.48970000       0.78874900      11.20890000        0
C       23.33520000      16.07510000      11.65500000        0
C       22.29130000      15.05170000      12.03240000        0
Cl      18.15210000      18.97470000      14.11540000        0
H       30.00340000       2.84142000      20.16350000        0
C       25.29390000      17.99190000      20.36570000        1
C       23.93750000      18.50270000      20.17610000        1
C       24.39160000      21.02410000      15.01840000        1
C       25.17300000      22.20240000      15.50590000        0
H       31.85890000       1.44135000      19.61560000        0
C       25.03820000      21.94560000      22.09570000        0
C       24.10450000      22.99770000      22.25780000        0
C       27.03790000      21.19080000      22.11530000        0
C       26.88960000      24.71750000      23.44780000        0
Cl      20.07030000      23.76780000      16.14170000        0
Cl       7.49717000      22.76690000       7.94283000        0
H       28.32670000       1.07641000      14.05620000        0
C       31.28210000      22.61730000      23.41770000        1
C       30.88730000      23.98000000      22.96710000        1
C       31.52030000      25.10670000       0.09524890        1
C       31.03560000       0.87460500      23.32790000        1
Cl      31.21810000      21.15960000      22.19840000        0
H       30.42370000      23.69640000      20.62500000        0
C       34.61440000      25.03920000       2.09298000        1
C       33.53150000       0.39709100       1.36434000        1
C       33.03600000      23.55050000       1.17351000        1
C       32.59550000      24.84170000       0.94709300        1
Cl       0.25685600       7.43367000       2.17189000        0
C       24.26240000      20.71870000      11.54060000        0
C       24.23680000      22.13430000      11.69520000        1
C       23.51640000      23.11200000      12.63850000        1
C       23.26250000      24.30560000      12.30090000        1
Cl      13.18530000      13.16320000       4.75650000        0
H       23.22170000      22.68520000      13.63040000        0
H       25.66860000      23.86930000       8.58066000        0
C       30.44590000       1.05925000      13.53280000        1
C       29.45910000       4.25863000      12.90590000        1
C       31.21670000      24.56880000      14.86370000        1
C       30.34900000      24.98440000      13.80080000        1
C       24.66430000      22.52380000      16.78870000        0
C       24.78740000      23.47630000      17.81600000        0
C       26.12440000      23.58060000      18.36930000        0
C       27.01260000      24.54370000      18.80570000        0
C       24.93490000      24.12290000      22.40050000        0
C       25.96290000       0.36361400      23.53070000        0
C       26.21730000      22.28390000      22.66140000        0
C       26.33800000      23.59730000      22.86170000        0
C       31.86300000       5.21281000       1.13724000        1
C       32.21080000       6.04417000       2.20157000        1
C       32.64430000       4.86228000       4.18284000        1
C       33.33900000       5.61022000       5.26336000        1
Cl      25.49020000      11.28200000      22.73540000        0
H       33.94560000       0.10777100      22.74280000        0
C       28.66820000       8.63955000       6.89061000        1
C       29.53050000       8.93907000       5.59366000        0
C       33.70790000       1.67776000       1.04051000        1
C       33.67860000       5.35081000       2.71941000        0
H       34.66920000      23.22400000      23.02110000        0
C       23.58410000      24.83010000      11.03570000        1
C       23.66850000       0.67912700      10.56110000        1
C       23.39060000       1.81262000      11.36190000        1
C       23.00460000       3.11209000      11.04900000        1
C       29.99800000       4.34995000      14.05750000        0
C       29.50140000       5.56659000      15.08870000        0
C       29.97610000       3.01364000      12.04580000        1
C       30.21690000       3.97789000      10.92180000        1
H       22.28420000       4.30025000      16.14810000        0
C       27.92580000      25.13180000      19.72410000        0
C       28.80270000       0.07947510      20.41470000        0
C       30.85440000       3.07451000      17.37080000        1
C       30.13130000       3.72476000      18.27390000        1
H       23.07820000      23.08170000      22.02620000        0
C       29.74680000       0.90809600      22.81390000        1
C       30.26980000       3.04746000      23.16230000        0
C       29.58940000       0.02062000      21.63500000        1
C       30.03690000      24.32330000      21.74520000        1
Cl      31.68720000       9.21844000      21.13670000        0
C       31.90330000      13.35930000       8.18412000        1
C       33.69970000      10.86520000       3.52959000        0
C       32.47920000      10.19410000       3.50867000        0
C       32.12340000       9.40898000       2.29632000        0
Cl      34.66970000       5.64685000      10.30260000        0
C       30.79440000      13.44770000       4.68644000        1
C       28.77560000      14.73910000       3.43809000        1
C       30.48420000       9.17151000       4.82173000        0
C       31.81890000       9.82986000       4.72194000        0
H       34.80910000      12.34110000       6.75522000        0
C       23.28770000       5.06541000      10.66490000        0
C       24.87970000       6.40494000      11.63610000        0
C       26.82710000       4.93655000      12.92220000        0
C       26.07350000       5.52402000      11.75480000        0
C       25.95460000       7.71465000      13.38040000        1
C       25.07640000       7.69363000      12.28520000        0
C       29.49030000       7.09861000      14.44430000        0
C       25.89280000       6.74775000      14.44850000        1
C       29.80760000       3.73356000      19.72670000        1
C       29.41240000       4.95660000      20.44110000        1
C       29.08250000       6.20983000      19.93770000        1
C       28.48910000       6.95505000      20.94730000        1
C       30.69700000       5.36935000       0.52444100        1
C       30.15270000       6.74923000       0.59882300        1
C       30.11470000       4.47467000      23.03340000        1
C       29.40520000       5.15111000      21.85230000        1
C       31.76790000       7.49623000       2.12712000        1
C       30.62140000       7.66509000       1.46499000        1
C       27.02580000      15.41110000       1.94370000        1
C       18.71310000      15.82710000      23.25680000        0
H        0.66069100      11.83990000      23.03240000        0
C       31.10110000      14.74900000       4.52734000        1
C       32.46590000      15.30490000       5.15071000        1
C       28.15210000      15.69970000       2.56105000        1
C       29.87290000      15.54000000       3.90966000        1
C       26.13540000       5.27692000      14.18060000        0
C       25.36680000       4.58383000      15.42320000        0
C       24.91820000       3.18244000      15.55950000        1
C       25.72410000       2.26278000      14.67810000        1
H       26.40530000       5.67253000       9.58377000        0
H       28.97130000       7.03107000      16.16280000        0
H       26.23940000       2.71089000      13.90970000        0
C       25.15290000      10.53620000       9.97501000        0
C       26.12550000      10.02720000       8.99676000        0
C       24.62380000       9.03844000      12.16300000        0
C       24.27810000       9.69848000      10.97230000        0
C       28.89560000       6.48643000      22.08880000        1
C       25.69070000       9.14632000      15.45960000        1
C       25.46140000      10.66500000      15.66100000        1
C       26.54920000       9.09416000      17.75800000        1
Cl      25.57590000       3.65595000      19.27200000        0
C       30.32600000       8.86900000       0.66625900        0
C       30.78520000       9.94423000       1.56546000        0
C       29.27590000       7.24440000      23.16220000        1
C       29.37790000       8.70808000      23.19620000        1
Cl      33.44810000      11.65610000      21.87490000        0
C       29.34390000      18.60310000       0.69662900        0
C       29.74300000      18.32520000       1.96542000        0
C       28.71360000      17.26960000       2.76229000        0
C       29.82950000      16.91070000       3.72298000        0
H        0.21229200      13.06910000       2.55220000        0
C       32.97970000      16.72170000       5.16655000        0
C       32.11730000      17.74420000       4.72803000        0
C       32.80470000      14.35920000       6.14345000        1
C       33.77750000      14.80120000       7.62724000        0
H       29.76350000      19.11460000       4.96246000        0
H       25.29080000      17.08210000       4.95341000        0
H       33.88290000      13.41210000      10.49390000        0
C       25.18390000      13.57420000       6.02079000        0
C       25.16200000      14.60830000       5.20541000        0
C       25.01360000      16.13430000       5.63260000        0
C       24.15270000      16.43840000       6.59926000        0
Cl      23.37060000       8.87174000       9.54956000        0
Cl      27.50820000       2.44813000      22.55280000        0
H       25.54940000      14.30690000       4.21844000        0
C       27.50110000       9.25566000       7.20324000        1
C       27.07680000      10.59300000       6.67554000        0
C       26.91940000       8.93994000       8.69598000        1
C       27.79260000       7.88263000       9.37538000        1
Cl      24.24570000      14.32910000       0.71786800        0
C       35.07440000      18.66300000      21.23440000        1
C       35.10090000      19.50710000      20.00420000        1
C        0.41556900      20.84120000      20.14300000        1
C        0.15610300      21.90400000      19.11130000        1
Cl      29.81040000      13.13860000      17.53540000        0
C        4.36934000      25.02640000       1.52181000        0
C        3.18373000       0.25122200       1.79885000        0
C       35.01570000       2.24769000       0.96977100        1
C        1.11724000       1.23512000       1.32347000        1
C       34.00100000      18.75560000       5.56047000        1
C       34.89890000      19.63700000       6.19875000        1
C        0.92021100      19.01240000       6.69933000        1
C        1.48144000      17.75890000       6.11443000        1
Cl      29.71590000      15.34330000       7.46744000        0
Cl       2.06572000      10.31660000       2.09367000        0
H        2.45898000      17.76380000       6.57575000        0
C       29.96710000       2.22847000       4.98687000        0
C       30.81810000       3.13789000       3.97061000        0
C       29.71030000       0.31870500       6.11652000        1
C       29.14850000       0.97965100       4.84987000        0
C       30.41070000      11.86430000       6.72404000        1
C       26.33380000      21.93340000       6.97530000        0
C       26.23680000      21.56040000       8.66184000        0
C       27.19500000      20.58040000       8.57170000        0
C       28.64250000      22.28750000      12.33850000        0
C       28.19270000      23.33970000      13.05200000        1
C       31.46640000      18.56640000      16.99530000        0
C       32.20490000      19.88340000      16.87910000        0
H       23.81900000       1.95617000      12.30090000        0
H       30.02480000      15.99120000      16.82380000        0
C       34.64290000      23.07310000      19.68120000        1
C       33.69910000      23.96950000      18.66590000        1
C       34.43380000      23.15250000      16.24590000        0
C       33.39370000      23.91130000      17.24950000        1
C        0.75308200       0.25461100       2.21804000        1
C        2.49696000       1.33828000       0.99224000        0
C        2.18317000      25.00420000       2.52953000        0
C        2.16096000      23.82360000       3.24760000        0
Cl      11.08960000       8.05243000      14.50540000        0
H        0.03043110      21.97660000       8.39903000        0
C       31.40510000       1.69634000      17.15490000        1
C       32.17960000       0.37969900      17.84230000        1
C       32.38150000       0.47718400      19.06730000        1
C       33.31320000      25.01380000      19.56360000        1
Cl      32.92440000       6.35920000      21.08480000        0
Cl       7.53130000      23.17530000      14.01690000        0
C       31.96170000       3.37893000       9.36649000        1
C       31.49540000       3.44530000       5.90605000        1
C       31.62620000       4.11743000       4.55386000        1
C       24.08530000       1.08142000       9.23972000        1
C       24.69230000      18.97030000       9.58805000        0
C       25.00060000      20.42400000      10.05620000        0
C       25.37100000      21.65970000       9.50022000        0
C       24.58120000      22.62580000      10.22470000        1
H       31.14330000      23.45380000      14.87580000        0
C       31.01540000      19.90610000      11.73550000        1
C       32.22030000      20.36020000      12.36570000        1
C       28.76250000      21.57750000      11.29280000        0
C       29.70750000      20.75340000      10.73120000        0
Cl      32.06250000      21.04850000      18.15510000        0
C       32.54580000      24.93080000      16.87670000        1
C       31.80730000      25.39950000      15.79670000        1
C       31.21520000       1.21963000      15.90500000        1
C       30.96750000       1.92028000      14.66750000        1
C        2.74211000      25.03950000      20.78910000        1
C        1.49244000       0.07302470      18.17790000        1
C        3.21011000       1.41437000      22.25620000        0
C        3.44234000      25.39160000      21.95490000        1
C       33.72770000      24.48410000      20.95520000        0
C       34.45560000      23.45980000      20.95560000        1
C       32.76940000      10.20500000       5.68464000        0
C       33.89120000      11.05050000       5.03638000        0
Cl       4.49492000      18.55870000       6.66539000        0
C       31.43310000       2.22989000      23.47340000        0
C       32.57130000       2.57379000       0.60921300        1
C       30.87720000       2.20437000       5.99736000        0
C       30.52890000       0.92418300       6.98790000        1
Cl       1.11936000       8.16088000       8.85476000        0
C       24.40730000      24.03090000      10.02610000        1
C       24.98860000      24.61380000       8.91596000        1
C       24.48960000       0.31789600       8.20224000        1
C       24.41080000       1.03547000       6.80303000        0
C       33.37810000      20.17430000      11.68970000        1
C       34.39290000      21.21410000      11.43450000        0
C       31.13590000      18.53390000      10.78160000        1
C       30.01890000      18.22580000      10.02150000        0
C       30.57770000       3.32238000      14.91860000        1
C       30.18290000       3.75660000      16.24230000        1
C       29.68710000       5.14847000      16.38850000        0
C       29.56210000       5.22293000      17.76420000        1
C        0.91764300       3.26584000      19.76630000        1
C        2.07247000       3.05772000      20.76450000        1
C        1.01898000       0.86785600      19.20560000        1
C        0.51862600       2.23047000      18.89530000        1
Cl      11.80600000       1.38692000       5.25564000        0
C       34.34470000      12.29000000       5.57157000        0
C       35.13900000      13.23420000       4.77362000        0
C        0.99378600      15.54810000       5.02289000        0
C        0.29575300      15.22150000       3.73235000        0
C        5.01432000       7.76834000       1.91523000        1
C        6.44683000       8.81498000      23.32100000        1
C       32.87390000       3.90817000       1.00954000        1
C       33.91440000       4.06377000       1.94642000        1
Cl      11.79300000       2.13439000      20.54240000        0
C       24.15800000       2.42844000       7.31109000        0
C       23.79250000       2.36031000       8.65597000        1
C       23.26050000       3.37894000       9.54691000        1
C       26.98510000       5.57239000      10.38870000        0
C        1.17847000      23.44010000      11.56370000        0
C        1.05095000      24.72680000      11.79240000        0
C        0.57996300      20.95300000      10.99510000        1
C        1.38473000      22.14850000      11.00630000        1
H       34.01220000       0.18824800      10.60610000        0
C       29.68920000       6.47236000      18.59160000        1
C       28.91310000       7.53338000      17.62970000        0
C       29.91680000       8.06808000      16.64620000        0
C       28.10140000       9.02648000      19.62050000        1
Cl       5.60740000       4.96934000      11.62620000        0
C       28.73320000       7.17310000      13.34280000        0
C       28.24840000       8.15462000      12.82910000        0
C        2.37169000       1.78832000      21.18880000        1
C        1.74262000       0.75658400      20.53110000        1
Cl       7.36695000      18.60770000      19.35610000        0
C        0.13237100      13.86710000       3.46113000        0
C        0.29701700      14.47000000       5.83146000        0
C       34.76110000      14.59570000       6.94787000        0
C       34.45410000      10.31860000       2.43873000        1
H       32.74820000       9.35045000      22.75180000        0
C        4.93967000       9.06450000       3.93677000        1
C        4.80311000       7.74532000       3.36581000        1
C        5.20051000       9.28544000       1.68067000        1
C        5.51440000       9.88828000       2.88208000        1
C       28.15480000       4.99526000      10.84060000        1
C       28.11640000       4.60872000      12.27050000        1
C       29.48720000       4.79475000      10.09900000        1
C       29.75740000       6.02321000       9.42122000        1
Cl      25.52990000      23.38740000       6.75237000        0
C       33.73360000       0.77054000      11.48460000        1
C       32.56870000       1.56002000      11.34750000        1
C       34.19540000       1.00510000      12.74520000        1
C        0.17439200       0.23695400      13.11890000        1
Cl       0.76470300      16.26790000       2.33341000        0
Cl      32.21180000      22.49020000      12.86540000        0
C       28.52310000       8.51572000      20.70230000        1
C       29.11450000       9.30428000      21.69620000        1
C       28.91150000      10.93780000      20.98540000        0
C        2.54217000      13.15720000      18.32240000        1
C        0.70725900      19.08150000      22.38790000        1
C        0.87447100      20.36140000      22.38350000        1
C       25.69980000       8.83459000      14.14880000        1
C       24.93710000       9.71526000      13.39740000        0
H       33.03450000       0.78161400      21.47540000        0
H       23.95950000      10.16090000      13.67890000        0
C        0.42402800      10.96860000       1.93954000        1
C        0.14849500      11.13120000       0.43784400        1
C       34.20350000      10.70630000      23.41000000        1
C       33.38360000       9.47121000       0.12604200        1
Cl      16.51910000      24.96670000       7.72734000        0
C       33.52320000      14.46990000      10.09320000        0
C       34.63210000      15.54620000      10.28830000        1
C        5.66708000       6.64378000       1.18989000        1
C       32.36510000      15.17110000      10.91010000        0
C       28.72350000       6.93873000       8.73279000        1
C       29.53950000       7.81492000       7.97119000        1
C       30.41850000       8.60379000       8.73774000        1
C       30.73240000      10.05030000       8.91705000        1
H       32.78830000       7.57004000      21.31650000        0
C       30.33140000      12.37170000      14.89100000        1
C       29.91490000      13.25840000      15.82720000        1
C       32.21410000       2.98324000      11.93410000        1
C       29.74660000       1.65790000      12.40130000        0
C       32.49170000      14.58070000      20.70990000        0
C       33.01210000      15.69320000      20.92850000        0
C       33.80040000      16.57290000      20.92810000        0
C       34.66890000      17.52180000      20.98730000        0
H        1.17390000      20.51320000      23.48450000        0
C        2.32629000       4.25229000      21.44390000        0
C       33.63380000       0.14635100      21.84020000        0
C        0.49942200      21.37930000      21.64130000        1
C        0.01052060      22.76590000      22.07140000        1
Cl      34.07890000      14.72510000      17.56140000        0
C       33.17010000       9.66056000       1.36688000        1
C       33.09620000      14.14220000       8.67931000        0
C        0.62028700      16.90100000       5.68038000        1
C       34.33890000      17.33950000       5.34962000        1
C        3.00155000      15.00270000       9.34685000        1
C       29.38290000      24.45710000       6.41229000        1
C        0.77550100      15.76070000       9.98028000        1
C        1.70051000      14.74110000       9.84275000        1
H       34.97690000      22.81730000       1.83051000        0
C       30.64740000      11.24240000       8.02573000        1
C       31.06790000      12.43910000       8.74639000        1
C       32.16400000      13.54200000       6.84189000        1
C       31.20650000      12.78680000       5.99640000        1
H       29.21460000      16.06210000      10.35610000        0
C       31.58550000      16.40890000      15.62430000        0
C       32.16730000      17.58460000      16.23000000        0
C       30.16590000      14.56960000      15.53430000        1
C       30.59220000      15.78310000      16.12680000        0
H       22.04440000      13.89400000      11.84250000        0
C        0.82855300      16.38660000      14.06550000        1
C        1.33926000      15.19700000      13.68700000        1
C        0.38486100      14.01340000      13.71360000        1
C       34.12200000      13.92360000      13.72700000        1
Cl       7.55781000      13.99010000       8.83354000        0
H       34.00680000      12.93450000      14.11690000        0
C        5.02442000      18.79380000      14.43200000        1
C        6.46825000      19.41560000      16.70040000        0
C        3.73816000      20.11610000      13.15590000        1
C        5.03886000      19.34640000      13.00220000        1
Cl      21.20560000       5.81751000       9.38867000        0
Cl      14.15260000      18.02340000      20.85530000        0
H       10.83460000       0.96045900      14.49710000        0
C        5.02616000      14.14470000      21.75140000        0
C        4.92838000      15.33830000      21.07270000        0
C        4.73292000      16.96670000       6.82229000        0
C        5.31519000      14.82380000       6.64846000        1
Cl      31.05010000      20.93120000       4.41702000        0
H        9.10029000      18.34160000      21.29510000        0
C        1.24801000      17.18530000      10.10800000        1
C        2.55888000      19.70620000      10.29440000        1
C        3.37608000      16.49650000       9.12682000        1
C        2.68981000      17.41840000      10.02150000        1
H        2.11672000      14.92280000      13.22700000        0
H       27.60280000      24.86410000       0.82252800        0
C       30.29580000      25.16560000       9.05193000        1
C       30.88130000       0.75837900       8.37296000        1
C       31.23440000       1.98963000       9.28835000        1
C       31.36500000       1.08334000      10.64890000        1
C       34.42890000      17.94300000      11.05300000        1
C        0.61340300      18.32880000      10.51180000        1
C       32.58050000      16.51420000      11.15820000        0
C       33.84550000      16.77370000      10.62160000        1
C       33.49700000      15.32050000      14.45790000        1
C       34.45330000      16.40440000      14.60420000        1
C       34.24200000      17.83160000      14.79680000        1
C       33.10310000      18.30460000      15.62370000        1
Cl      30.20480000      18.26980000      17.90820000        0
H        9.97768000      11.47360000      15.41310000        0
C       26.69130000       0.90824600       4.31293000        0
C       29.27230000       2.26701000      22.67910000        0
C        5.43597000      19.16110000      15.71850000        0
C       27.98830000       0.77112700       4.46636000        0
H        5.30275000      17.67550000      10.31250000        0
C        5.10083000      15.95640000       5.89186000        0
C        5.73102000      16.59120000       4.74961000        1
C        5.41757000      17.97400000       4.27428000        1
C        6.11317000      18.42460000       3.23712000        1
C       34.62350000      21.89190000       7.57385000        0
C       33.87200000      23.05080000       7.04533000        0
C        3.38956000      18.42390000      10.48820000        1
C        4.84076000      18.67810000      10.36360000        1
Cl       3.47125000      24.13850000      13.20160000        0
C       31.66980000       3.99991000      10.69460000        1
C       32.74410000       3.90340000       8.27555000        0
C       32.65570000       3.89815000       6.79752000        1
C       33.16630000       5.16756000       6.55051000        1
Cl       5.80155000       7.41347000      16.29360000        0
H        6.54463000      20.05730000      22.09380000        0
C       34.32610000       6.41951000       4.75341000        1
C        0.03074350       6.70674000       5.67108000        1
C        1.91430000      21.73420000      14.59010000        1
C       34.57680000       6.35827000       3.27480000        0
Cl      33.64170000      24.49680000       7.78130000        0
C       33.32280000      19.67270000      16.01500000        1
C       34.38850000      20.41880000      15.46690000        1
C       34.79810000      21.71930000      15.58170000        1
C        0.78130400      22.28300000      14.98900000        1
C       30.35500000       9.49509000      14.87120000        0
C        5.27634000       5.49160000       3.65437000        1
C        1.62481000       7.04188000      20.40510000        0
C       31.18650000       7.97672000      16.25400000        0
H        0.70659700       4.33895000       1.21361000        0
C        5.57489000      19.51680000       2.36075000        0
C        4.73489000      20.43950000       2.38040000        0
C        4.54395000      20.92430000       4.04911000        0
C        3.89699000      22.18770000       4.09588000        0
C        2.42946000      22.11590000       9.98464000        1
C        2.96648000      23.29110000       9.55064000        1
C        4.38422000      20.95000000       9.32087000        1
C        3.16560000      20.88540000       9.78282000        1
C       32.04060000       5.61889000      10.79840000        1
C       32.34890000       6.37660000      11.91170000        1
C       31.15120000       6.39804000       9.84099000        1
C       31.13460000       7.79977000       9.74392000        1
H        2.29838000       3.78795000      13.96790000        0
C       33.65300000       5.09084000       8.77205000        0
C       33.94100000       3.32218000      15.82100000        1
C        0.12685000       6.23322000       7.04530000        1
C       33.99330000       5.76266000       7.57305000        1
C        0.48495800       0.31832600      14.50790000        1
C       34.84890000       1.28778000      15.40290000        1
C       33.61760000       4.65853000      15.12490000        1
C        0.25014800       5.38425000      18.75810000        0
C        5.03177000       6.80535000       5.84600000        1
C        5.17425000       8.14590000       6.28017000        1
C        6.23916000       4.43552000       4.11983000        1
C        4.85979000       6.69653000       4.19294000        1
C        3.08367000      23.01950000       3.65131000        0
C       33.37330000       5.86575000      17.46380000        1
C       33.22570000       7.29511000      17.91960000        0
C       35.04850000      12.17210000      17.82750000        1
C        3.27106000       2.14638000       9.99477000        1
C        1.95142000       2.34070000      11.81100000        1
C        1.96033000       0.07040540      10.63010000        1
C        2.25609000       1.49737000      10.91920000        1
C       31.67300000       8.51387000      10.90200000        1
C       30.98040000       9.68012000      11.36550000        1
C       30.72700000      10.50680000      10.22110000        1
C       31.19770000      11.95070000      10.17440000        1
H        9.25448000      24.16840000       9.97122000        0
C       32.98260000       3.44846000      12.99310000        1
C       32.87880000       4.64640000      13.76610000        1
C       34.23550000       2.31371000      14.88600000        1
C       33.87500000       2.52823000      13.41870000        1
Cl      30.69490000      11.62060000       1.10619000        0
C        1.00752000       4.61554000      19.54300000        0
C       33.49170000       5.78678000      15.92860000        1
C       32.67570000       6.94908000      15.40110000        1
C       32.41670000       7.53329000      16.63790000        0
C        5.72399000      11.15170000       3.51140000        1
C        6.32082000      12.61600000       2.62886000        1
C        5.42664000       9.16534000       5.21217000        1
C        5.30068000      10.55760000       5.73785000        1
C        0.27424300      13.49590000      17.70760000        1
C        1.59816000      13.87720000      17.78390000        1
C        2.25335000      15.20190000      17.05570000        0
C        1.63274000      16.26790000      16.58760000        0
Cl      14.67170000      17.89020000      10.45370000        0
C        2.99530000       5.64735000      11.40660000        1
C        3.22112000       6.80903000      10.54450000        1
C        2.26286000       3.74952000      11.88880000        1
C        2.94796000       4.39472000      10.95000000        1
H       15.94490000       8.11480000       3.01712000        0
C       31.52300000      12.51420000      11.41910000        1
C       31.53830000      14.03470000      11.84870000        0
C       32.17630000      17.94360000      11.50360000        1
C       33.48090000      18.70210000      11.47420000        1
C       29.84430000       8.27938000      15.22730000        0
C       31.89780000       8.22175000      13.36790000        1
C       32.72510000       5.84987000      13.38180000        1
C       32.52660000       7.07018000      14.06060000        1
C        0.65669500       6.80686000      19.24870000        0
C        0.03597390       7.95188000      19.24450000        0
C       33.99680000       8.36845000      18.70080000        0
C       34.27010000       9.95734000      18.72630000        0
Cl      32.71330000      11.90210000      17.89460000        0
H        2.47391000       5.23762000      19.47480000        0
C        6.06966000      11.41570000       0.10917000        0
C        7.17407000      12.18350000       0.59914000        0
C        7.57383000      12.31710000       2.01994000        1
C        4.92914000      11.82610000      22.77560000        0
C        2.49402000      17.38660000      16.52120000        0
C        3.69203000      17.58220000      15.81190000        0
C        3.93127000      15.22260000      17.69300000        1
C        5.56549000      15.40060000      19.74540000        1
Cl       2.39708000      17.97960000      18.11740000        0
C        4.20637000      10.07740000       9.16382000        1
C        4.06679000      11.42720000       9.48885000        1
C        3.25231000       8.11359000      10.97520000        1
C        3.74147000       8.84177000       9.83968000        0
Cl       2.19725000       5.58615000       0.18706100        0
C       29.52870000      16.78420000       9.62940000        0
C       29.66440000      16.98760000       8.32921000        0
C       29.33560000      18.43370000       7.80552000        0
C       29.89110000      19.27320000       8.98012000        0
H        7.26549000      18.14770000       8.05671000        0
C       31.00960000      10.35260000      12.60720000        1
C       30.94630000      11.74140000      12.48700000        1
C       32.27820000       7.78658000      11.94760000        1
C       31.01670000       9.36086000      13.66280000        1
C       34.05490000      11.20170000      17.99880000        0
C        0.18272500      19.71790000      14.85440000        1
C        0.23974200      18.48590000      14.45770000        1
C        1.40638000      17.70110000      14.08330000        1
C        5.29934000      17.40640000      17.87420000        0
C        3.87611000      21.43360000      13.15950000        1
C        5.56150000      10.06610000       0.37628600        1
C        6.31750000      18.62120000      18.05000000        0
Cl       9.19200000      18.80000000       0.98315700        0
Cl       1.95455000      20.13870000       7.42551000        0
C        4.56005000      18.16160000      16.67240000        0
C        4.30218000      10.58470000      22.94670000        0
C        3.41860000       9.82412000      22.09890000        0
C        4.74016000      13.02930000      22.17080000        0
H        4.48368000      10.20890000      17.66240000        0
C        4.37778000      15.00270000       7.80893000        1
C        4.20690000      16.41700000       8.05693000        0
C        4.37204000      12.72520000       8.61045000        1
C        3.95311000      13.94790000       8.61873000        1
Cl       9.16386000      14.88850000      13.29570000        0
H       28.73100000      23.84570000       5.81486000        0
C       30.01110000      20.65170000       9.31282000        0
C       29.97530000      21.82040000       8.66920000        0
C       29.76520000      22.94400000       8.26035000        0
C       29.60660000      24.17410000       7.80516000        1
C       31.23510000      14.74300000      14.25550000        1
C       32.31290000      15.71870000      14.65280000        0
C       30.68030000      12.47190000      13.51720000        1
C       31.25670000      13.70920000      13.38240000        1
C        5.80568000      12.23720000      17.80990000        1
C        5.36862000      10.89400000      17.36280000        1
C        7.66532000      10.21930000      17.43180000        1
C        7.32336000      12.39590000      17.55550000        1
H        5.90871000      10.10040000      15.17820000        0
C        9.26369000       0.35718000      23.28420000        0
C        9.94360000      10.73870000      23.34610000        1
C       11.63320000       1.26395000      23.53570000        0
C       10.56650000       0.85337200      22.79610000        0
H        8.44690000      20.18420000      12.45700000        0
H        4.35299000       4.64137000      16.36000000        0
C        6.67088000      19.80650000       1.44335000        0
C        6.35065000      20.98950000      22.59050000        0
C        6.05892000      20.72580000       0.31909900        0
C        5.01980000      21.46830000       1.26956000        0
Cl      10.68590000      16.11200000       2.45849000        0
C       11.55250000       8.04331000      10.35000000        1
C       10.84280000       7.62446000       9.06357000        0
C        6.30775000      13.49210000       3.87649000        1
C        7.22309000      14.68840000       3.69262000        1
Cl      12.49240000      17.93300000       0.89646100        0
C       12.80820000      17.82280000       9.81887000        0
C       12.02830000      17.37520000      10.81110000        0
C       10.85550000      17.47990000       9.79586000        0
C        9.93877000      18.42570000       9.71741000        0
Cl       1.58511000      12.87080000      10.09520000        0
C        2.50617000      18.22640000      13.55320000        1
C        1.22561000      19.74280000      10.64050000        1
C        4.36858000      16.44250000      14.16460000        0
C        3.85146000      17.83250000      14.32350000        1
C        8.10964000      11.50590000      16.82870000        1
C        9.41351000      11.90370000      16.37110000        1
C       10.29610000      12.81380000      17.21280000        1
C        9.60959000      13.72350000      18.08230000        1
Cl       9.27748000       9.28548000      16.97410000        0
Cl      12.16480000      12.65860000      16.98570000        0
H        9.55177000      14.38030000      18.78810000        0
C       10.35630000       8.35557000      23.25830000        1
C       10.94180000       7.08013000      22.79700000        1
C       10.82630000       9.77421000       0.22716300        1
C       11.51100000       1.39086000       2.39915000        1
Cl      10.09450000       2.15827000       2.72798000        0
C        4.69762000      22.52160000       0.26238900        0
C        5.16953000      22.27530000      22.49600000        0
C        3.84460000      24.28340000      22.72920000        1
C        4.28481000      24.00300000       0.37402200        0
C       10.54060000       7.28171000       6.67179000        0
C        3.40863000       3.63204000       9.82379000        1
C       11.35240000       6.89944000       7.84389000        0
C       10.10720000       8.74540000       7.02996000        0
Cl       7.75700000       4.21063000       0.00481138        0
C       11.66640000      19.81520000       8.36801000        0
C       12.48270000      18.67860000       8.63405000        0
C        8.92174000      18.95850000       8.98346000        0
C        5.29950000      19.78500000       9.50181000        1
Cl       7.65652000      17.80550000      12.29960000        0
C        3.20011000      22.39120000      14.11310000        1
C        0.39526900      23.47610000      15.58780000        0
C        2.43281000      19.62350000      13.74740000        1
C        1.48277000      20.36330000      14.37390000        1
H        4.72376000      19.88750000       4.86913000        0
C        8.18564000      13.58440000      17.98310000        1
C        7.47439000      14.24100000      19.13100000        1
C        8.10453000      15.51120000      19.61390000        0
C        9.69729000      16.34850000      21.76960000        0
C        8.61836000      15.58610000      20.78730000        0
C       12.34060000      18.92520000      22.89340000        0
C       15.97370000       6.54254000      19.01270000        1
C       10.17060000      17.71550000      21.50670000        0
Cl       0.95949700      12.37600000      14.20990000        0
C        4.43049000      23.28390000      21.65550000        1
C        3.88201000      23.08470000      20.26250000        1
C        2.85844000      24.08590000      19.74820000        1
C        2.49048000      24.59910000      18.42190000        1
H        4.64190000      22.07550000      19.77820000        0
C        6.78722000       2.06874000       3.44487000        0
C        8.57787000       2.10500000       6.88262000        1
C        2.52419000       6.18654000       7.81593000        0
C        1.37130000       6.83767000       7.85765000        0
Cl      32.40180000      18.20740000       8.14735000        0
C        6.60591000      20.26000000       8.73206000        0
C        6.43735000      21.73830000       8.83335000        0
C        4.99845000      22.09440000       8.93674000        1
C        4.23635000      23.17090000       9.04457000        1
Cl       7.00324000      23.93560000      10.95510000        0
C        0.03625260       1.43586000      16.76660000        1
C       34.29950000       4.99177000      18.05910000        1
C        0.93312200      24.96920000      15.63110000        0
C        1.11474000       0.29948200      16.74890000        1
Cl      11.01060000      20.69540000       6.48343000        0
C       13.01930000      12.80610000       0.12855400        1
C       11.59430000      17.85970000      21.95520000        0
C       13.53720000      11.58910000      20.03120000        0
C        7.73642000       6.87084000      19.85060000        0
H        7.07782000       5.93306000      19.59520000        0
C       13.94950000      19.59840000      20.44510000        0
C       13.97400000      20.28650000      19.21600000        1
C       12.64300000      20.29590000      22.66760000        0
C       13.33100000      20.51700000      21.31650000        0
C        2.14863000       5.43512000      20.57460000        0
C       35.15850000       3.60968000       1.29371000        1
C        2.93515000       4.40767000      22.81110000        0
C        2.99147000       2.16964000      23.47180000        0
Cl       3.12674000      23.59970000      17.14840000        0
C        7.98475000       4.21660000       7.48165000        1
C        7.39907000       3.94790000       6.31468000        1
C        9.30964000       0.87988200       6.64318000        1
C        8.80956000       3.13713000       7.97189000        0
H        9.62022000       3.05054000       8.78393000        0
C        4.99746000      24.77950000       9.26400000        1
C        6.35747000      25.01690000       9.93383000        1
C        8.54208000       1.19818000      11.42090000        1
C        7.68333000       1.65342000      10.38530000        1
C        6.83177000       2.82918000      10.52040000        1
C       35.11780000       2.45004000      17.73450000        1
C       34.24140000       3.44992000      17.33690000        1
C        5.52825000       3.16400000       9.31440000        1
H       27.80890000       8.79410000      12.04790000        0
C        8.96812000       7.08369000      19.55400000        0
C        2.68378000       8.98830000      21.47070000        0
C        1.80394000       8.32045000      20.79500000        0
C        0.80387100       8.98227000      19.90490000        0
Cl      10.49690000       7.51862000      19.80520000        0
Cl       1.11276000       4.56042000      16.13420000        0
C       12.66720000      21.04520000      17.00940000        1
C       12.63040000      21.87830000      18.07590000        1
C       13.43490000      21.63450000      19.10880000        1
C       13.04180000      21.81410000      20.74420000        0
Cl      32.91370000       9.63235000       7.41469000        0
C        3.68760000       3.32703000       0.02730200        0
C        6.48079000       7.45551000       0.15819200        1
C        5.25503000       5.39211000       2.06915000        1
C       30.10600000      10.85190000      15.51180000        0
H       29.16490000      10.80030000      15.97200000        0
H        1.26394000       2.21306000      12.78920000        0
C        6.33114000       3.44529000       3.15901000        0
C        5.32651000       3.81227000       2.03301000        0
C        7.89253000       2.77793000       5.79536000        1
C        7.66055000       1.86606000       4.54816000        1
C        6.77711000       1.00190000       9.51997000        1
C        5.42641000       1.93583000       9.25527000        1
C        8.97480000       6.49285000       9.92877000        0
C        4.52498000       4.19565000       9.18750000        1
Cl      19.50760000       0.97153900      12.62080000        0
C        6.97225000       3.93713000      11.60770000        1
C        7.68616000       6.35714000      14.15070000        0
C        8.35365000       2.03183000      12.60470000        1
C        8.01603000       3.57226000      12.67980000        1
Cl      25.62190000       4.67565000       2.86814000        0
C        0.49614400      10.13300000      19.10370000        0
C        0.94385600      11.42980000      18.63040000        1
C        2.10511000      12.02700000      18.96540000        1
C        3.89518000      13.80060000      18.29390000        1
Cl      22.76590000      13.79180000      21.54490000        0
H        9.57714000       6.50973000      15.98660000        0
C       12.08460000      21.57000000      22.90370000        0
C        4.38062000       3.48015000       1.18922000        0
C       12.02600000      23.16380000      17.57070000        0
C       12.44830000      22.51090000      21.78810000        0
Cl      15.68200000      18.26310000      18.09410000        0
C        2.59765000       8.31901000      12.28470000        1
C        2.39545000       7.11215000      13.29810000        1
C        2.55643000       5.80871000      12.71210000        1
C        2.14554000       4.47713000      13.05140000        0
H        2.54365000       7.07593000      14.48980000        0
C        7.98830000       5.80290000       9.53411000        0
C        7.31448000       5.33162000       8.22734000        1
C        6.40885000       4.60314000       5.49868000        1
C        5.60688000       5.67136000       6.37451000        1
C        4.65150000       5.57399000       8.73650000        0
C        3.42859000       6.34914000       9.07964000        0
C        4.26560000       7.89295000       9.00020000        0
C        5.08254000       8.47248000       7.77198000        1
Cl       2.89699000       9.80338000      12.97340000        0
C        6.72598000       9.73804000      13.10810000        1
C        7.05193000      10.74050000      12.30940000        1
C        6.10760000       8.03990000      14.45560000        0
C        6.00490000       9.41094000      14.31650000        0
C        4.95709000      16.00200000      18.45800000        1
C        6.08097000      14.09050000      19.14430000        1
C        5.15960000      13.17930000      18.72170000        1
C        6.47842000       9.90205000      17.87600000        1
C        6.90310000      25.30890000       0.68537600        0
C        8.04611000       0.18915000      23.54170000        0
C        6.51280000       0.75761200       2.90376000        0
C        5.89096000       0.05053440       1.52229000        0
C        6.93264000      16.09130000       4.09097000        1
C        7.79160000      16.86410000       3.22429000        1
C        7.44319000      18.14740000       2.72477000        1
C        7.68657000      19.10300000       1.72923000        0
C        5.20661000      11.73710000       4.75670000        1
C        5.42825000      13.04810000       5.04068000        1
C        9.30723000       7.36093000      11.14160000        0
C        5.69988000       5.47415000       7.80814000        1
Cl      11.93980000      24.43310000      21.90470000        0
C        4.87307000       9.85934000       7.94805000        1
C        5.21666000      10.87960000       7.08919000        1
C        4.98490000      12.28760000       7.47501000        1
C        5.37862000      13.39820000       6.38217000        1
C        5.34553000      14.14110000      13.67800000        0
C        4.77154000      15.35070000      13.90460000        0
C        6.88756000      12.37390000      12.61970000        0
C        5.81331000      12.98170000      13.33260000        0
H        2.57036000       5.36601000       7.37631000        0
C       13.70470000       7.34838000      15.31640000        0
C       13.74610000       8.72606000      15.72870000        0
C        6.18356000      19.99280000      12.60100000        0
C        7.46056000      19.82650000      12.38760000        0
Cl       5.08577000      13.24380000       1.31162000        0
Cl       7.72935000      20.74370000      17.49440000        0
H        4.89647000      21.74760000      12.73030000        0
C        7.83855000       9.25704000      23.45460000        1
C       13.64860000      12.70220000      19.46470000        0
C        8.35747000      10.50030000      23.11820000        1
C        8.78831000       8.34871000      23.45580000        1
H       10.40330000       1.23216000      21.66560000        0
C       12.28330000       6.59757000      22.31470000        1
C       12.31740000       5.41460000      21.67460000        1
C        7.64817000      19.06500000       8.47572000        0
C        8.98187000      15.80080000       2.97266000        0
H       19.30900000      21.38240000       5.99450000        0
C       15.04970000      17.60120000       6.98582000        1
C       14.51030000      18.63870000       6.18206000        1
C       15.78770000      14.99880000       6.57650000        1
C       14.88240000      16.12470000       6.48519000        1
C        7.65806000       9.05027000      10.53630000        1
C        7.48129000      10.64130000      11.07630000        1
C        8.59904000      11.76080000      11.06870000        0
C        9.88607000      11.90540000      10.62800000        0
H       13.28430000      18.48630000       7.98498000        0
C       11.65480000      13.47480000      11.74100000        0
C       12.47970000      14.24150000      12.66370000        0
C        9.36812000      13.58920000      12.08170000        0
C       10.32510000      13.27140000      11.24620000        0
Cl      15.71540000       8.11613000       9.65045000        0
C       14.51550000      16.59040000      14.57350000        1
C       13.90630000      17.91870000      14.35880000        1
C       13.51940000      18.93500000      15.33340000        1
C       13.51010000      19.71450000      16.63470000        1
Cl      12.73820000      10.29770000      20.55760000        0
Cl      20.20430000      15.05360000      19.73780000        0
H       15.29780000      18.99840000      22.67250000        0
C       16.38950000      15.42690000      20.58050000        1
C       16.50750000      16.45010000      21.33240000        1
C       14.81470000      13.48030000      19.40300000        1
C       14.90540000      14.65650000      20.08690000        1
Cl       3.39860000      11.26710000      19.50540000        0
H       14.34230000      15.22610000      20.82670000        0
C        8.49825000      14.51700000       3.24973000        1
C       14.69300000      20.07700000       6.32955000        1
C       13.89100000      21.04630000       5.65732000        1
C       14.32260000      22.43920000       5.68091000        1
C        8.94683000      23.51680000       3.99285000        1
C        7.85023000      24.08750000       3.24399000        1
C        9.06735000      25.40390000       5.61402000        1
C        9.67953000      24.27450000       4.90762000        1
Cl      10.01340000      22.26410000       3.16845000        0
H        7.52545000      23.24540000       2.38027000        0
H       10.64830000      24.03230000       5.31166000        0
C       10.44150000      11.18100000       9.52792000        0
C       10.33620000       9.99961000       9.13010000        0
C       10.35790000       8.77727000       8.40171000        0
C        9.55808000       9.56608000       6.05787000        0
H        3.55776000      10.75020000      10.43160000        0
H       18.39330000      23.28080000      11.17890000        0
H       10.98270000      16.72780000       8.89886000        0
C       13.69490000      15.58400000      13.66320000        1
C       12.89110000      15.59350000      12.49950000        1
C       13.21920000      13.42550000      13.64420000        1
C       13.89000000      14.44010000      14.38430000        1
H       12.13230000      12.54230000      11.49520000        0
C       14.65110000      19.87340000      18.04380000        1
C       11.75550000      21.77870000      13.59840000        1
C       11.76940000      23.23250000      13.92750000        1
C       10.71530000      23.84400000      13.05420000        1
H        9.67337000      13.47510000      21.84440000        0
C       18.33790000      19.81400000      21.15310000        0
C       17.86690000      21.29300000      21.27450000        0
C       17.72250000      17.18040000      21.54990000        1
C       18.12170000      18.47730000      21.67120000        0
Cl      14.07620000       0.95567100      12.37700000        0
Cl      35.11990000      10.41860000      12.47970000        0
C       13.09880000      21.12520000       4.32954000        0
C       12.92340000      22.42250000       3.90402000        0
C       13.74750000      23.40780000       4.74646000        1
C       14.25450000      24.70980000       4.61192000        1
Cl      19.31460000      18.39470000       6.31929000        0
C       14.32370000       4.42432000       8.51830000        0
C       13.40380000       5.40673000       8.03723000        0
C        7.52463000      25.32300000       3.49456000        1
C        8.06658000       0.45903000       4.67062000        1
Cl      17.74970000       9.08392000      11.71790000        0
H       15.07390000       5.60265000      10.55420000        0
H        7.30269000      19.19200000      16.08000000        0
C        9.08820000      10.42140000       5.33362000        0
C        9.00082000      11.45460000       4.53869000        0
C        8.90571000      11.86120000       3.42284000        0
C        8.52854000      13.16130000       2.73185000        1
C       12.61070000      19.44920000      13.03640000        1
C       12.83770000      19.88450000      14.38540000        1
C       12.65120000      16.88850000      12.25070000        1
C       13.16880000      18.02650000      12.91280000        1
C       10.49870000      23.50490000      11.68560000        1
C        9.69141000      24.44300000      11.02790000        0
C        9.31008000      25.26600000      12.05810000        1
C       10.00030000      25.00820000      13.37830000        1
C       17.04670000      24.44830000      21.10650000        0
C       17.72910000       0.34955500      21.14940000        1
C       18.37260000      22.37930000      20.41810000        1
C       18.07670000      23.66190000      20.76240000        1
H       13.86680000      23.34350000       9.12596000        0
C       13.33690000      25.46020000       3.55626000        1
C       12.25320000       1.02666000       3.66298000        1
C       11.94290000       1.05861000       1.18131000        1
C       13.91980000       0.36093400       2.33706000        1
H       12.34900000      21.95010000       3.10934000        0
C       16.25280000       2.28112000      10.48560000        0
C       18.77210000       5.03431000       5.97819000        0
C       15.15860000       3.66738000       8.84638000        0
C       16.06950000       2.74337000       9.11548000        0
Cl      27.47940000       0.86868100      10.10450000        0
H       19.87830000      24.91300000       7.50346000        0
C       16.19400000       3.82854000      14.05190000        0
C       16.85490000       2.65769000      14.20050000        0
C       17.26420000       2.11008000      12.80230000        0
C       17.37040000       1.08550000      10.49660000        0
Cl      21.05830000      25.40980000      10.11010000        0
C       12.02260000      22.97960000      16.31820000        1
C       11.99740000      23.74470000      15.10030000        1
C       12.36230000      21.12530000      14.67850000        1
C       12.16540000      21.68300000      15.94970000        1
H       12.24080000      24.75560000      15.03210000        0
C       10.07690000       0.80215600      13.83050000        1
C        9.08497000       1.60926000      13.77500000        1
C        9.38167000       2.79015000      14.56190000        1
C       10.27490000       3.01692000      15.54330000        1
H       10.96210000       2.10161000      16.10380000        0
C       15.68990000       2.79227000      17.94430000        1
C       15.03640000       2.94304000      16.87170000        1
C       16.50980000       2.28771000      22.58150000        1
C       13.11370000       2.20658000      21.74820000        0
H       15.46970000      20.64520000      17.89840000        0
C       13.48300000       1.31643000       1.49665000        1
C       14.15480000       1.78971000       0.32978500        1
C       12.96260000       1.53787000      22.85390000        0
C       13.82240000       3.26192000      21.51720000        0
C       16.05640000       6.45001000       4.15780000        1
C       16.51680000       7.85932000       3.96623000        1
C       18.29770000       6.18355000       5.68105000        1
C       16.79600000       5.88159000       5.21958000        1
Cl       9.76254000       6.13942000       5.57801000        0
Cl      16.94980000      10.45790000       8.26069000        0
C       18.02640000       1.12820000      12.03440000        0
C       16.26500000       2.79250000      11.91060000        0
C       15.50900000       3.81580000      12.62380000        0
C       14.76760000       5.03940000      12.62680000        1
Cl       1.37242000      17.99040000       0.32206600        0
H       17.79220000       2.59487000      15.04270000        0
C       14.61780000      11.00950000      15.78670000        0
C       13.83390000      10.00080000      14.98190000        0
C       14.31470000       9.19692000      16.89330000        1
C       14.87060000      10.34190000      17.02230000        1
Cl      11.71440000      10.56640000      13.34710000        0
H       22.01980000       4.36068000      14.21990000        0
H        6.55004000       9.05180000      18.49870000        0
C       10.13650000       4.34820000      16.11620000        1
C        9.25052000       5.37933000      15.71500000        1
C        8.39198000       5.23671000      14.49570000        1
C        8.62314000       3.93915000      14.09970000        1
Cl      11.48370000       5.10802000      16.58760000        0
Cl      11.96970000      20.01340000       3.78677000        0
Cl       5.54462000       4.27632000      16.11090000        0
C       15.02550000       5.48159000      16.99800000        1
C       15.48940000       5.21934000      18.31860000        1
C       15.48490000       4.76797000      14.84990000        0
C       15.24760000       4.26260000      16.14820000        1
H       18.37800000       7.60107000      21.25020000        0
C       13.42360000       4.62660000      21.62440000        1
C       14.69690000       5.26262000      21.78540000        1
C       14.68170000       6.53299000      22.32470000        1
C       15.68360000       7.07472000      23.37340000        1
C       19.30430000       8.63919000       6.14058000        0
C       18.50910000       9.98720000       5.91774000        1
C       17.84330000       8.35974000       4.53256000        1
C       18.76570000       7.55139000       5.31524000        1
C       14.47360000       5.82838000      11.31670000        1
C       13.38840000       6.51761000      11.37450000        1
C       12.61760000       6.79561000      12.82900000        1
C       11.43630000       7.52834000      12.87750000        1
Cl      15.85640000       0.91863900      18.04170000        0
H       14.32160000       7.11533000       3.60078000        0
C       14.74050000      12.24600000      15.26250000        1
C       15.52490000      13.30880000      15.47570000        1
C       13.16370000      10.75290000      13.92910000        0
C       13.68690000      12.21740000      13.98410000        1
C       13.97700000       8.31095000       9.77852000        0
C       12.99700000       7.78036000      10.50950000        1
C       14.26000000       5.46576000      13.88530000        1
C       13.53350000       6.61047000      14.08480000        1
C        8.68916000       5.70983000      23.08380000        1
C        8.18501000       7.02286000      23.44620000        1
C       10.79950000       4.99126000      21.75920000        0
C        9.93748000       5.92204000      22.50640000        1
H        0.71605800      16.49110000      16.62680000        0
C       18.08030000       9.69082000       4.59778000        1
C       15.25230000       8.25117000       0.12231900        0
C       13.81000000       8.41945000      23.26060000        0
C       13.54100000       7.24983000      22.46210000        1
Cl      22.11550000      13.41090000       2.78676000        0
C       16.83850000      12.97680000       6.68916000        1
C       15.66260000      13.62730000       6.17863000        1
C       17.80200000      10.69130000       6.66951000        1
C       17.11570000      11.74820000       6.11154000        1
C        7.11821000       7.28776000      13.53000000        0
C        7.33311000       8.51138000      12.69450000        1
C       10.82880000       7.86035000      11.48580000        1
C        8.14521000       8.18734000      11.53690000        1
H        8.66431000       9.06014000      10.01590000        0
C       16.67320000      16.17960000      16.08650000        0
C        8.12126000      12.75790000      11.96910000        0
C       14.96370000      14.63580000      15.18420000        1
C       15.41080000      15.89650000      15.37580000        0
H       13.38140000       9.01446000       9.18918000        0
C       15.67150000      10.41480000      18.30270000        1
C       16.29990000      11.56470000      18.87630000        1
C       16.11510000      13.02810000      18.77040000        1
C       17.22690000      13.67850000      19.44140000        1
C       14.07330000      12.59550000       0.87235900        0
C       12.55790000      14.15600000      23.22810000        1
C       11.20850000      14.35270000      22.89890000        1
C       10.84690000      15.67830000      22.17620000        0
C       16.89300000      11.67100000       4.70012000        1
C       14.88800000      12.86220000       5.06397000        1
C       15.70420000      12.11480000       4.00651000        1
C       16.83280000      15.21420000       7.46738000        1
H       18.31490000      13.64510000       8.19401000        0
C       22.19220000      17.08210000       7.21882000        1
C       21.69760000      18.49100000       7.90487000        1
C       19.98260000      14.88800000       9.76642000        1
C       20.51700000      16.24600000       8.99494000        1
H       13.48340000      18.34080000       5.81341000        0
C       17.51450000      13.88240000       7.59061000        0
C       18.08260000      17.15700000       9.24325000        1
C       18.03200000      18.46510000       9.63164000        1
C       17.46630000      19.47500000       8.94637000        1
C       18.30020000      20.52590000      12.68510000        0
C       18.51600000      21.87740000      12.94740000        0
C       18.09750000      18.57300000      11.08940000        1
C       18.26090000      19.96100000      11.48300000        1
H       11.96750000      19.88500000      11.09090000        0
C       17.63350000      14.88680000      19.80220000        1
C       18.87390000      15.46730000      20.34920000        1
C       18.93800000      16.24480000      21.68760000        1
C       19.58370000      18.02570000      21.94300000        0
Cl      18.34920000       6.82178000      14.56050000        0
C       14.44890000      15.99220000      22.78770000        0
C       15.69220000      16.62260000      22.61540000        0
C       13.07470000      15.54220000      22.69090000        0
C       11.98150000      16.38040000      22.24450000        0
C       17.19380000      16.62050000       8.24590000        1
C       16.67400000      17.85450000       7.63146000        1
C       16.59380000      19.19430000       7.80275000        1
C       15.67050000      20.35000000       7.27525000        1
H       19.86170000      15.10910000       2.11713000        0
C       21.75710000      21.88270000       7.72701000        1
C       22.39810000      22.16770000       6.44661000        1
C       22.37190000      19.71300000       7.75070000        1
C       21.49260000      20.71490000       8.48087000        1
Cl      27.75550000      21.29170000       4.75038000        0
C       18.16020000      21.05540000      10.37930000        1
C       18.01900000      22.30200000      11.48810000        0
C       17.19720000      20.78270000       9.47165000        1
C       16.64940000      22.00480000       8.79089000        1
H       19.17140000      23.55430000       8.94909000        0
H       16.27400000      22.78460000       9.33106000        0
C       18.74860000      21.02440000      16.62610000        0
C       18.67520000      20.20140000      17.63650000        0
C       18.56460000      22.02740000      14.34230000        0
C       18.72850000      22.04770000      15.72930000        0
C       20.03550000      18.46490000      20.59090000        0
C       20.92890000      17.87540000      19.96680000        0
C       21.93450000      17.16710000      19.27610000        0
C       19.15840000      19.68640000      20.06550000        0
H       21.82720000      19.54050000      16.97670000        0
C       16.33210000      19.17490000       2.25760000        0
C       15.75650000      19.90330000       1.31804000        0
C       16.05640000      17.63720000       0.55809300        0
C       16.66040000      17.58690000       1.75604000        0
C       15.67960000      21.77420000       7.66012000        1
C       15.12370000      22.79420000       6.89808000        1
C       15.46680000      24.24610000       6.60901000        1
C       14.93710000      25.04350000       5.70668000        1
Cl      24.62690000       4.01353000       6.70771000        0
C       21.63650000       0.46471200       5.58036000        0
C       21.03270000       1.78869000       5.73140000        0
C       22.31750000      23.54180000       5.90897000        1
C       21.92250000      24.82550000       6.40859000        1
C       11.37700000      22.44620000      11.34940000        1
C       12.19940000      22.86750000      10.14670000        0
C       12.84250000      23.81860000       9.52501000        0
C       13.52310000      24.70960000      10.35250000        0
H       11.74610000      20.50420000       9.56399000        0
C       23.57760000       0.66936500      17.98400000        1
C       22.88980000       2.02758000      18.44990000        1
C       22.87570000      22.46130000      18.05230000        0
C       22.77350000      24.87370000      18.58000000        1
C       19.32130000      20.31530000      18.83690000        0
C       19.11560000      22.17000000      19.34570000        1
C       20.35640000      22.72470000      18.98680000        1
C       20.33010000      24.29560000      19.41540000        1
C        3.92967000       0.03003180       9.30818000        1
C        2.55156000      24.73500000       9.70463000        1
C       15.39560000      18.82250000       0.12346500        0
C        4.03024000       1.42890000       9.17297000        1
C       12.55200000       6.20744000       7.93863000        0
C       16.19680000       1.00340000       4.94775000        0
C       15.72300000       2.23258000       5.12525000        0
C       14.80230000       3.65412000       3.63351000        0
H       15.06700000       3.23966000       2.70985000        0
C       23.04920000       2.04692000       1.64965000        1
C       24.35200000       1.97988000       2.46612000        0
C       22.76140000       4.22778000       0.13381200        1
C       22.23390000       1.21091000       2.67362000        1
H       25.99840000       4.05456000       1.76450000        0
H       23.76670000       3.97951000       0.35495300        0
C       11.92310000      20.18380000      12.16990000        1
C       11.51830000      21.41350000      12.29650000        1
C       13.76460000       0.21368600      11.02600000        0
C       14.10670000       4.97668000       3.23938000        0
C       19.85290000       6.08172000      18.70860000        1
C       18.76940000       5.24924000      19.22980000        1
C       21.55250000       2.45465000      19.05430000        1
C       21.01490000       3.70298000      19.20570000        1
Cl      19.18520000       7.67034000      18.34120000        0
C       19.20880000      24.35140000      20.16460000        1
C       18.83810000       0.40506800      20.30930000        1
C       19.69440000       1.45483000      19.82380000        1
C       19.08740000       2.74973000      19.72690000        1
Cl      16.02660000      22.59660000      11.31140000        0
C       18.17580000       9.17636000       1.02902000        0
C       16.94500000       9.61096000       1.63574000        1
C       15.34980000      11.50920000       2.84379000        1
C       16.44170000      10.46960000       2.71327000        1
C       15.59860000       0.51328300       2.40110000        1
C       16.61090000       0.53993000       3.65816000        1
C       17.76590000      25.27890000       3.57260000        1
C       18.28540000      25.34470000       2.13003000        1
Cl      16.87010000      16.28860000       2.65382000        0
C       24.08390000       6.08805000      10.68340000        0
C       22.86670000       4.33961000      11.92530000        0
C       23.56910000       6.65025000       2.47326000        0
C       22.28950000       3.09881000       1.10952000        1
C       12.78460000       4.86512000       2.69969000        0
C       11.84140000       5.03473000       1.92763000        0
C       17.69830000       4.21534000       6.41393000        0
C       16.50400000       4.47457000       5.38771000        0
Cl      10.10140000       0.12173900       7.80793000        0
H       11.29190000       5.52610000       1.25285000        0
C       18.44740000       9.87997000      21.75450000        0
C       17.41230000       7.56926000      20.55340000        1
C       17.65130000       5.31022000      20.00800000        1
C       16.81390000       6.50718000      19.98820000        1
Cl       1.09254000       8.01669000       5.20399000        0
C       19.63940000       3.95479000      19.12170000        1
C       17.75510000       2.90120000      20.66310000        1
C       16.82340000       4.07046000      20.04550000        1
C       15.90480000       4.06545000      18.87770000        1
Cl      11.07550000      22.10220000       0.70316500        0
Cl      26.18330000      16.24570000       0.44684900        0
C       13.56330000       9.70074000       0.32570100        0
C       12.20030000      10.30340000       0.35537900        0
C       15.86800000       9.28401000       0.80886700        1
C       14.70150000      10.32090000       0.97108700        1
Cl      11.25830000      24.65090000      18.35790000        0
C       17.79770000       1.09820000       1.38372000        1
C       20.77160000       0.71358100       2.02291000        1
C       20.20120000       1.91699000       1.34800000        1
C       18.84160000       1.99510000       0.69486100        1
Cl      20.51230000      22.81170000       0.02329570        0
H       14.29280000      18.42860000       0.39330000        0
H       18.97680000      24.76610000       5.60897000        0
C       20.66210000       8.77442000       6.37900000        0
C       20.86600000      10.32800000       6.78446000        0
C       22.57460000       4.70594000      13.21280000        0
C       21.13360000       5.26538000       7.49916000        0
Cl      21.59190000      10.14950000       3.53839000        0
C       15.58550000       3.56983000       4.69852000        0
C       14.66810000       6.02693000       3.81451000        0
C       21.20960000      11.44030000       4.58185000        0
C       21.67950000      12.70120000       4.29725000        0
H       20.66590000      10.32330000       7.81593000        0
C       17.34850000      11.30700000      19.85870000        1
C       18.17150000      12.51080000      19.70050000        0
C       17.00170000       8.89796000      20.07980000        1
C       17.64900000      10.09420000      20.62910000        1
H       19.10310000      12.45270000      20.31180000        0
C       14.26110000       6.69072000      16.58590000        1
C       14.55760000       7.74103000      17.38210000        1
C       15.70880000       7.77818000      18.37890000        1
C       16.14440000       9.12899000      18.88690000        1
C       10.54160000      11.89920000      23.25780000        1
C       10.26720000      13.17030000      22.79980000        1
C       12.06580000      11.77070000       0.29711700        1
C       14.54170000      11.53350000       1.67602000        1
C       20.89770000       3.09628000       0.92667400        1
C       22.52440000       6.76652000       3.18574000        0
C       16.87810000       4.71220000      22.57250000        1
C       17.31710000      10.57950000       3.82495000        1
Cl      14.40710000      16.36300000       4.72166000        0
C       20.65080000      13.82500000       7.42823000        1
C       20.08430000      13.88200000       8.76613000        1
C       21.14410000      11.32310000       6.00736000        0
C       21.27170000      12.89600000       6.42927000        0
C       21.12860000      13.56980000       5.22586000        0
C       21.18150000      14.96620000       5.44772000        0
C       20.88820000      15.10650000       6.76889000        1
C       21.05020000      16.30650000       7.62687000        1
H       21.62660000      15.41820000       4.49744000        0
C       18.75060000      16.30740000      12.84270000        0
C       18.24540000      17.08950000      11.53040000        0
C       17.91470000      16.27450000      15.37350000        0
C       18.62810000      16.35210000      14.35200000        0
Cl      16.93790000      15.89800000      17.69760000        0
1296
Lattice="33.9051393638 0.0 0.0 0.0 24.5572246362 0.0 0.0 0.0 22.7203459766" Properties=species:S:1:pos:R:3:ring:I:1 timestep=3029 pbc="T T T"
C       18.29710000      17.06720000      14.14750000        1
C       19.12900000      18.00570000      13.73890000        1
C       20.53920000      18.03460000      13.43150000        1
C       21.71210000      18.96180000      13.26710000        1
C       27.53600000      12.91190000      21.38540000        1
C       24.67960000      19.51640000      20.83670000        1
C       27.27350000      15.62730000      20.80570000        1
C       27.63190000      14.52070000      21.60070000        1
C       22.85000000      18.46130000       2.06595000        1
C       21.90860000      17.60360000       1.54641000        1
C       16.60060000      16.58600000      20.69500000        1
C       17.45900000      16.60280000      21.73410000        0
Cl      27.29220000      13.63150000      15.48820000        0
Cl      14.56030000       2.08339000       5.48309000        0
C       24.09460000      19.87350000       3.59161000        0
C       23.61740000      20.81860000       2.57383000        0
C       23.37740000      18.89380000       5.74072000        1
C       23.50270000      20.07730000       5.21706000        1
H       28.59760000      17.74370000       9.87501000        0
C       17.32690000      16.10530000       8.45539000        1
C       21.20080000      17.43950000       8.44803000        1
C       20.36280000      18.48440000       8.52750000        1
C       21.12470000      19.76620000       8.30626000        1
C       22.63150000      19.17780000      12.25050000        1
C       23.28990000      20.40100000      12.29960000        0
C       21.80350000      16.76310000      11.67150000        1
C       22.62580000      17.87030000      11.53610000        1
Cl      28.23420000       0.83740200       4.69801000        0
H       33.36350000      20.67680000      17.82050000        0
C       22.32940000      19.89280000      14.61130000        1
C       22.19810000      20.10060000      16.03140000        1
C       22.50800000      21.33900000      16.25640000        1
C       23.43260000      19.28980000      20.17540000        1
C       28.65140000      21.37510000       2.79490000        1
C       22.83260000      24.46390000      19.98250000        0
C       23.12210000      15.66010000      18.45650000        1
C       22.83120000      23.17000000      20.02570000        0
C       21.25310000      21.71290000       1.30256000        0
C       21.65030000      20.40030000       1.30446000        1
C       20.61250000      19.54080000       0.75868500        1
C       20.76260000      18.12200000       0.76816000        1
C       23.67280000       0.07178670       3.79803000        0
C       23.10490000       0.32745800       2.45128000        0
C       22.87500000      19.81550000       1.69795000        1
C       24.01650000      23.14550000       4.08864000        0
Cl      22.49530000      11.39990000      13.60390000        0
C       20.63180000      20.94180000       8.95291000        1
C       21.12940000      22.26510000       8.60334000        1
C       22.23480000      22.63470000       7.78471000        1
C       22.03030000      23.85760000       6.96269000        1
H       21.29650000      19.68240000      16.51320000        0
C       30.46570000      23.23080000      15.06190000        1
C       26.86620000      24.50450000      14.16740000        1
C       30.48990000      21.98740000      14.46320000        1
C       25.24250000      22.41270000      13.66850000        0
C       22.55910000      20.62770000      19.64640000        1
C       21.11310000      20.66450000      19.12370000        0
C       20.76180000      21.87040000      18.29030000        0
C       21.54830000      23.21370000      16.13790000        1
C       22.40040000       5.98400000      18.52810000        0
C       23.19140000       6.51832000       0.22698900        1
C       22.90760000       1.23665000      20.24780000        0
C       25.29940000       6.02916000       1.43906000        1
H       15.40800000       6.31713000      20.96070000        0
C       21.07440000      16.67730000       2.17569000        0
C       19.71270000      16.25400000       1.44819000        0
C       17.59560000      16.01470000       1.43079000        0
C       19.91540000      17.36450000       0.38693200        0
C       26.15460000      24.43150000       0.12670500        0
C       28.93120000       9.24954000       5.07185000        1
C       23.55470000      22.24270000       3.03279000        0
C       25.39560000      23.59150000      22.57980000        0
H       26.19210000       6.33504000       5.36247000        0
H       17.67740000      12.62960000       1.69019000        0
C       21.10190000       1.45174000       6.01929000        1
C       19.79900000       2.40436000       6.31337000        0
C       19.83740000       0.47452600       8.05561000        0
C       19.41950000       1.70326000       7.61935000        0
C       24.34330000       0.18579000      13.94540000        1
C       22.94950000       0.00726451      14.45760000        1
C       30.04590000      21.53810000      13.11810000        1
C       25.70870000      23.99800000      13.84800000        1
C       19.71770000      24.51000000      17.57420000        1
C       19.05110000       1.28465000      17.73100000        1
C       23.49540000       7.90992000       0.23713800        1
C       20.15690000       4.48122000      22.28000000        0
C       22.53590000       5.04071000      19.52070000        0
C       21.34350000       7.70320000      16.90850000        0
C       22.83460000       2.45332000      20.24250000        0
C       22.96250000       3.90161000      19.73540000        0
Cl      21.74830000      14.67440000      18.76380000        0
C       18.18410000      17.09210000       2.05122000        0
C       17.94130000      18.46860000       2.60339000        0
C       18.39500000      19.50890000       2.21306000        0
C       19.38250000      20.30120000       1.41863000        0
C       29.99360000      10.37750000       6.84469000        1
C       29.91130000      11.54400000       6.17269000        1
C       27.61660000       8.26356000       4.83892000        0
C       29.09020000       9.37627000       6.29829000        1
C       18.15430000       2.52069000       7.97580000        0
C       17.96630000       3.65093000       7.01323000        0
C       18.82750000       3.32909000       5.77794000        0
C       22.46780000       4.81027000       3.26654000        0
Cl      22.28860000      23.12650000      11.93700000        0
C       20.83910000       2.85562000      14.58040000        1
C       20.10350000       4.11769000      14.46030000        1
C       21.87470000       0.80384800      14.51390000        1
C       21.90830000       2.17316000      14.01160000        1
C       16.55520000       2.98989000       1.78011000        1
C       17.91390000       3.27048000       1.48273000        0
C       13.69960000       3.30367000      20.39610000        1
C       15.32080000       1.80823000      20.34330000        1
Cl      17.15710000      10.98490000       9.84083000        0
C       21.21520000       6.06619000      12.77860000        0
C       26.08810000       6.07344000      17.15300000        1
C       18.96850000       6.08614000      13.77030000        0
C       20.18890000       5.49654000      13.64620000        0
Cl      18.81030000      19.76000000      13.70630000        0
H       15.62370000       7.89968000      18.64750000        0
C       19.86200000      21.65260000       1.60662000        0
C       19.34770000      22.83980000       2.06889000        1
C       21.53070000      23.04870000       1.64904000        0
C       20.46410000      23.81240000       1.92067000        1
C       28.96150000      10.21870000       2.71904000        0
C       25.03400000       9.34508000       2.54866000        0
C       29.44850000      11.56420000       4.79617000        1
C       28.93260000      10.46800000       4.30012000        1
C       23.57240000       3.99061000       5.68388000        0
C       24.64660000       8.39563000       1.04715000        1
C       17.94610000       7.44214000       9.53495000        0
C       17.35470000       7.98539000      10.49520000        0
C       18.84060000       7.31712000      12.95800000        0
C       18.13890000       8.39727000      12.56970000        1
C       18.73620000       4.07678000      15.09510000        1
C       18.18610000       5.43807000      14.84900000        1
C       14.81690000       5.03320000      18.95960000        0
C       21.72240000       4.61332000      22.45770000        0
C       22.90610000       2.84824000       5.12101000        0
C       19.46770000       5.53712000      22.55540000        0
C       27.38220000       9.39421000      20.88910000        1
C       26.34110000      10.14060000      20.21380000        1
C       25.58740000       7.38408000      17.67890000        1
C       26.71760000       7.07470000      19.88130000        1
Cl      16.79620000       4.57285000      21.02470000        0
Cl      19.10490000      11.97040000      15.88390000        0
Cl      13.98650000      22.95380000      20.23970000        0
C       20.36760000       0.65885500       1.40451000        1
C       18.01480000      23.15410000       2.27144000        1
C       22.48300000       8.65143000      22.17090000        1
C       20.85210000       6.70564000      21.96660000        1
C       25.54400000       7.36791000       1.74564000        1
C       25.65250000       6.73897000       6.48979000        0
C       26.82350000       8.17800000       3.86166000        0
C       25.83540000       8.21484000       2.94919000        0
C       17.79240000       8.97254000      11.49660000        1
C       17.80060000      10.40010000      11.17860000        1
C       17.95000000      11.27040000      12.17870000        1
C       17.67690000      12.65020000      12.14760000        0
C       18.43180000      11.93150000      14.28830000        0
C       17.97460000      13.07690000      13.67600000        0
C       18.43550000       9.51943000      13.81680000        1
C       18.32170000      10.75150000      13.53000000        1
C       21.04590000       8.14648000      22.02970000        1
C       19.29140000       9.60970000      21.23790000        0
C       21.88790000       7.07406000      17.91050000        0
C       18.13340000      10.14520000      20.32890000        0
C       26.16360000      13.92430000      19.75090000        1
C       26.41090000      15.31970000      19.88340000        1
C       26.26680000      11.42190000      19.79120000        1
C       26.94150000      12.65460000      20.03710000        1
C       20.29700000       9.28501000      22.04960000        0
C       13.89810000       6.13707000      19.82980000        1
C       16.88790000      17.05130000      19.05640000        1
C       23.68930000      18.52920000       3.36280000        0
C       23.86160000      16.71040000       5.20148000        0
C       23.63590000      17.93590000       4.61685000        0
C       26.14270000       7.94299000       6.84587000        0
C       21.72360000       8.85221000      16.27300000        0
Cl      23.12400000      10.36440000      21.74450000        0
H       16.55980000       4.02042000       3.97894000        0
C       17.51620000      13.40790000      10.95440000        0
C       17.16610000      13.98030000       9.88556000        0
C       16.98380000      14.61710000       8.47116000        1
C       18.69490000      16.27910000       9.16567000        1
C       19.97960000      15.72330000      12.43640000        1
C       20.73160000      16.89650000      12.48970000        1
C       18.11320000      14.46470000      13.93770000        0
C       18.83420000      15.51410000      13.42320000        1
C       25.88740000       9.31600000      19.20420000        1
C       24.90100000       9.73556000      16.76390000        1
C       25.27140000      10.00500000      18.15370000        1
C       25.57270000      11.50020000      18.47270000        1
C       27.84970000      12.16330000      22.54290000        0
C       28.44520000      16.83520000      22.68520000        1
C       27.71590000      10.98300000       0.50601400        0
C       28.24470000      11.03160000       1.86895000        0
C       29.92350000      16.41710000       4.77560000        1
C       29.75030000      17.50450000       3.75809000        1
C       28.39120000      16.42650000       7.59274000        0
C       29.00520000      15.94600000       8.89437000        0
H       32.66230000      19.86390000      15.97060000        0
H       15.92370000       4.21854000      12.66040000        0
C       30.15460000      20.14360000       4.50332000        1
C        0.73409300      18.74240000       6.57813000        0
C       31.14970000      18.28870000       5.72427000        0
C       30.27990000      18.53910000       4.84673000        0
C       25.09480000      15.08070000       9.28290000        0
C       24.69770000      13.66820000       9.50396000        0
C       25.14740000      12.18460000       9.01448000        1
C       22.81080000      12.30760000       9.80275000        0
C       24.01880000      11.51370000       9.45878000        1
C       22.98420000      14.97820000      10.58970000        0
C       26.55230000      10.47800000       8.35495000        1
C       26.52730000      11.72590000       8.74594000        1
C       24.32150000      12.44690000      18.42720000        1
C       24.80210000      13.66090000      19.14730000        1
C       24.52210000      15.03520000      18.83000000        1
C       25.24370000      16.18170000      19.34250000        1
Cl      28.42230000      15.09700000      13.37170000        0
C       25.63210000      18.24720000      20.68780000        1
C       26.80810000      17.96490000      21.48410000        1
C       27.93630000      17.99720000       0.71948800        1
C       27.85470000      16.96250000      21.41850000        1
H       25.09720000       1.88965000       5.23670000        0
C       28.58740000      17.23490000       6.56819000        0
C       28.07630000      18.46290000       6.33659000        0
C       27.28620000      19.32850000       6.75509000        0
C       30.61330000      22.23180000       3.65629000        1
H        0.24708700      19.66690000       1.63642000        0
C       32.33350000      21.41850000       4.97250000        0
C       32.58530000      22.89160000       4.82978000        1
C        1.17527000      20.83120000       5.81720000        0
C       30.94120000      21.22590000       4.59924000        1
Cl      21.30630000       7.41800000       6.27290000        0
C       23.29190000      13.63690000       9.98494000        0
C       24.10610000      15.72860000       9.85033000        0
C       24.10620000      16.95930000       9.60810000        0
C       23.27300000      17.98700000      10.19820000        0
C       30.35940000      22.58100000      12.31580000        1
C       32.36900000      22.03330000      16.72420000        1
C       21.79430000      15.49310000      11.14860000        0
C       20.50210000      14.73720000      11.49920000        0
C       25.00150000      17.46210000      19.69640000        1
C       23.71080000      18.09730000      19.42620000        1
C       23.29070000      20.57200000      13.70880000        1
C       24.01990000      21.80530000      14.10960000        1
H       29.12990000       0.48765700      21.38740000        0
C       25.18760000      20.64160000      21.59980000        1
C       24.23680000      21.74630000      21.18140000        1
C       27.06150000      18.74790000      22.56830000        1
C       24.38160000      22.91260000      22.08650000        0
C       29.28880000      22.58100000       2.89276000        1
C       29.17670000      23.96640000       2.50078000        1
C       30.26340000       0.38768100       2.66953000        1
C       30.08800000       1.74872000       2.09561000        1
H       25.75800000      17.83370000       6.53071000        0
C       33.58730000      23.89850000       4.93437000        1
C       32.13110000       1.03165000       4.33782000        1
C       31.36350000      23.54890000       4.28117000        1
C       31.46990000       0.21113700       3.35568000        1
Cl       2.52006000       3.80027000       4.34721000        0
C       24.00860000      19.19400000       9.74255000        0
C       24.20330000      20.56460000      10.12220000        1
C       23.55040000      21.20060000      11.11140000        1
C       23.51140000      22.56430000      11.01880000        1
H       16.10500000      19.46570000      14.61280000        0
C       28.15480000      23.89790000      14.48590000        0
C       27.28670000       2.10418000      15.80980000        1
C       31.25000000      23.23010000      16.25710000        1
C        0.50479500      22.36230000      14.53610000        1
C       23.20030000      22.11910000      15.14150000        1
C       22.58400000      23.33330000      15.20720000        1
C       27.55260000      20.52520000       2.09112000        0
C       25.37300000       3.74509000       1.47882000        0
C       23.19180000      21.68300000      20.22780000        1
C       22.79040000      23.42050000       2.01225000        0
C       26.22380000      20.16480000      22.58790000        1
C       26.80070000      21.03020000       1.00090000        0
C       31.57130000       5.09661000       4.10428000        1
C       31.81060000       6.06901000       4.95836000        1
C       31.90570000       2.86734000       7.03370000        1
C       32.10850000       3.86126000       8.36558000        1
Cl      18.65800000      14.46890000       4.34342000        0
H       31.82570000      21.85030000       2.20068000        0
C       27.29160000       8.43117000       6.28914000        0
C       31.68580000       7.29613000      10.00580000        1
C       33.59450000       0.67991200       4.48793000        1
C       31.72930000       5.45580000       6.29222000        1
H       31.71060000      23.40410000       1.50732000        0
C       24.27540000      23.12810000       9.90506000        1
C       24.16390000       0.11440200       9.34412000        1
C       23.70340000       1.23270000       9.95068000        1
C       23.62350000       2.69573000       9.12063000        1
C       26.71540000       3.45230000      16.47970000        1
C       26.95920000       3.95301000      17.64450000        1
C       26.77870000       1.53288000      14.73550000        1
C       26.64810000       4.76387000      12.05090000        0
C       26.08420000       4.84786000       1.94452000        0
C       25.37080000       2.33894000       1.33279000        0
C       28.63800000       0.99518900      19.44250000        1
C       28.44530000       1.24626000      20.83620000        1
C       29.38930000       1.90208000       0.91654500        1
C       30.94560000       2.79946000       2.47654000        1
C       27.12840000       0.84687000       1.74694000        0
C       27.97980000      24.33920000       1.81439000        0
Cl      33.53250000       8.07402000      14.41370000        0
C       32.05470000      12.69940000      10.35090000        0
C       33.26090000       9.99927000       6.89474000        0
C       32.87210000       8.57294000       6.51359000        0
C       32.10720000       8.59771000       5.34744000        1
Cl       6.97758000      12.61480000      13.75810000        0
C       30.82200000      12.40450000       6.57750000        1
C       29.85740000      12.88270000       4.33631000        1
C       31.63850000       8.30729000       8.62855000        1
C       32.37710000       7.47426000       7.71392000        1
H       33.38870000      15.21360000       7.13055000        0
C       23.92720000       3.91072000       7.03246000        1
C       23.01960000       6.10433000       9.69456000        1
C       22.53340000       3.02802000      12.23190000        0
C       24.08570000       5.02312000       7.74614000        1
C       21.67740000       7.62373000      11.22850000        1
C       23.29220000       7.66268000       9.11795000        1
C       26.68310000       5.24666000      18.17280000        1
C       20.60840000       7.43249000      12.31110000        0
C       27.79860000       2.39610000      21.21530000        1
C       28.25060000       3.43777000      22.03930000        1
C       27.81680000       4.71229000      21.78620000        1
C       28.36640000       6.00113000      22.27930000        1
C       31.08490000       5.25159000       2.69432000        1
C       30.63190000       6.56954000       2.44219000        1
C       30.80630000       4.04474000       1.83098000        1
C       29.82880000       4.36857000       0.82590700        1
C       31.96360000       7.52111000       4.25232000        1
C       31.21030000       7.52032000       3.16855000        1
C       28.59940000      12.53530000       2.07658000        0
C       19.08900000      13.85750000       0.96985800        0
H       33.11860000      12.75420000       3.10725000        0
C       31.04640000      13.74270000       6.20157000        1
C       31.65720000      15.00890000       7.29449000        1
C       29.35910000      13.34550000       3.03827000        0
C       30.39660000      13.98180000       5.08452000        1
C       21.96570000       5.39083000      11.65890000        1
C       22.38880000       4.08663000      11.33820000        1
C       23.08360000       2.48883000      13.31860000        1
C       24.38110000       1.72892000      13.81850000        1
H       16.66690000       6.94248000      21.70930000        0
H       30.94240000      24.35670000      22.31370000        0
C       23.93000000      10.04770000       9.24874000        1
C       25.25500000       9.85281000       8.38578000        1
C       24.29580000       7.53543000       8.15207000        1
C       23.27070000       8.75950000       9.93117000        1
C       29.42390000       5.67110000       0.55057300        1
C       22.93430000      10.50550000      14.96390000        0
C       23.96900000      10.45900000      15.96070000        0
C       25.70280000       7.80082000      18.98460000        1
C       30.64000000       8.73212000       2.94592000        1
C       29.58420000       9.13292000       2.19937000        1
C       29.65430000       6.82797000       1.67152000        1
C       28.92760000       8.15412000       1.39488000        1
Cl       9.62186000       0.28852900      16.79890000        0
C       28.83790000      15.58660000       0.78509500        1
C       29.63010000      15.88400000       2.00364000        1
C       29.64150000      14.71670000       2.95687000        1
C       29.67430000      15.07550000       4.42103000        1
H        2.45300000      18.62710000       3.41254000        0
C       31.43670000      16.49380000       7.10365000        0
C       30.56230000      16.97200000       5.93091000        0
C       32.23530000      14.42600000       8.52787000        1
C       33.00790000      15.00610000       9.47193000        0
H       17.74740000      12.15290000      19.81330000        0
H       26.53200000      22.06730000       0.69524600        0
C       26.62360000      15.48320000       8.67778000        0
C       27.81370000      15.51800000       9.32160000        0
C       26.78520000      16.16250000       7.60308000        0
C       23.75140000      15.88700000       6.14296000        0
Cl      18.39330000       6.85766000       8.09510000        0
Cl      27.60070000      11.87350000      10.10050000        0
H       27.64530000      15.32620000      10.42220000        0
C       27.78960000       9.66176000       8.48113000        0
C       28.04350000       9.08277000       7.17670000        0
C       25.14600000       8.59025000       7.83433000        1
C       28.03490000       7.88235000      10.57140000        0
C       28.22350000      19.50190000       2.67525000        0
C       29.32060000      20.18630000       3.31622000        1
C        3.18504000      23.81780000      20.67260000        1
C        1.97857000      20.88230000      21.32030000        0
Cl      30.25850000      11.31240000      19.84130000        0
C        4.17204000      22.60010000       3.10820000        0
C        2.77628000      22.90370000       3.24381000        0
C        1.65637000       2.32535000       3.68441000        1
C        1.74381000       0.06764940       4.40267000        1
C       32.07310000      18.63630000       6.74178000        0
C       33.21940000      19.38640000       6.47438000        0
C       33.31440000      16.34350000       9.25108000        0
C        1.07623000      16.28950000       6.44381000        0
Cl      21.18370000      11.88930000      10.22150000        0
Cl       3.12141000      14.16420000       6.09533000        0
C       30.38020000      23.64790000       6.89751000        1
C       31.62550000       0.67531300       5.72848000        1
C       29.03840000      22.15750000       8.25116000        1
C       28.93490000      22.74340000       6.85425000        0
C       30.80510000      10.47800000       7.79417000        0
C       26.75260000      22.04760000       6.65864000        1
C       26.51680000      20.58560000       7.03875000        1
C       26.05260000      17.44670000       7.48201000        0
C       26.84820000      20.88830000      12.06790000        0
C       26.29660000      21.68920000      12.99100000        0
C       32.17700000      18.17700000      20.18160000        0
C       33.27440000      19.00690000      20.36280000        0
H       23.51590000       1.42590000      11.08050000        0
H       30.89000000      15.08550000      20.90660000        0
C       33.04410000      20.27940000      20.94870000        0
C       32.34340000      21.48540000      20.46520000        1
C        2.13910000      20.59390000      20.08190000        1
C       32.30370000      21.89560000      19.09590000        1
C        1.15830000      23.41830000       4.56840000        0
C        2.34247000      24.37330000       3.03436000        1
C        1.73730000      22.22730000       4.03589000        0
C        1.94003000      21.12990000       4.81391000        0
H        5.79294000      19.04470000       8.86081000        0
C       29.80020000       0.38184400      18.95690000        1
C       30.73330000      23.94700000      19.90010000        1
C       31.22510000      23.67620000      21.32550000        1
C       32.13080000      22.59330000      21.28580000        1
C       31.31440000       2.34860000      11.61670000        0
C       31.15930000       0.93537100       8.15952000        1
C       31.41240000       1.60360000       6.83469000        1
C       24.72050000       0.41933600       7.98216000        1
C       25.00160000      17.63070000       8.46142000        0
C       24.92220000      18.89970000       8.73185000        0
C       25.77010000      20.21050000       8.17174000        1
C       25.22810000      21.11880000       9.18367000        1
C       31.37770000      19.71620000      13.76720000        0
C       32.53920000      20.84830000      15.70080000        1
C       31.60460000      20.81730000      14.72280000        1
C       30.17800000      20.12440000      12.92840000        0
Cl      24.50200000      14.80970000      13.21320000        0
C       31.32250000      23.09340000      18.89990000        1
C       31.02600000      23.46140000      17.49810000        1
C       29.98640000      24.51490000      17.67720000        1
C       29.00250000       0.24898200      16.57700000        1
C        4.32887000      23.81330000      21.43090000        1
C        1.56668000      22.96620000      18.62900000        1
C        3.25217000       0.14198800       0.51168800        1
C        4.22921000      23.93440000       0.05994160        1
C       32.61160000      22.00570000      22.64170000        0
C       33.43620000      20.81750000      22.19420000        0
C       31.51280000       9.74581000       8.60678000        1
C        0.02330220      10.46840000       7.94820000        0
Cl       5.95203000      22.00640000       8.95348000        0
C       31.11340000      23.89600000       5.66655000        1
C       31.60450000       2.56959000       3.85698000        1
C       30.44080000      24.35200000       8.01030000        1
C       29.54670000      23.42690000       8.83855000        1
C       25.18670000      22.46580000       8.88055000        1
C       26.06260000      22.78970000       7.72423000        1
C       25.64870000      24.01220000       7.49039000        1
C       26.31270000       0.17150200       6.46079000        1
C       33.78960000      21.03100000      14.55770000        1
C        0.39775900      19.88750000      13.93230000        1
C       32.24690000      17.08660000      12.85570000        0
C       31.56710000      17.12430000      11.52860000        0
C       28.18910000       1.56600000      16.73640000        1
C       27.83670000       1.79631000      18.38030000        1
C       27.19230000       2.95666000      18.70000000        1
C       27.22530000       3.20745000      20.01320000        1
C        0.48326000       2.15788000      21.61190000        1
C        1.22716000       1.70223000       0.08432720        1
C        1.07750000       0.31642400      20.14140000        1
C        0.14489100       1.43692000      20.52190000        1
C        0.47283600      11.30550000       8.70022000        0
C        1.14146000      11.93000000       9.76301000        0
C       33.20370000      17.58220000       8.99029000        0
C        0.98431700      13.87910000       5.70646000        0
C        5.86585000       7.41650000       2.29305000        1
C        6.08005000       8.16166000       0.17529000        0
C       31.92030000       3.68592000       4.67324000        1
C       31.98570000       3.99337000       6.08078000        1
Cl      18.31960000       2.12228000      11.46370000        0
C       25.40110000       1.27486000       6.05462000        0
C       24.57740000       1.64062000       7.13917000        1
C       23.63730000       2.70551000       7.71548000        1
C       24.47590000       6.42212000       7.42530000        1
C        1.77360000      22.30470000      14.03100000        1
C        2.53635000      23.69700000      13.77010000        1
C        1.61387000      20.02590000      13.18230000        1
C        2.25809000      21.11480000      13.00760000        1
C       27.12190000       4.47381000      20.50920000        1
C       26.99320000       5.59948000      19.57970000        1
C       30.69970000       8.97227000      17.79170000        0
C       27.26780000       8.07286000      20.90660000        1
C       26.20080000       4.24404000      15.47270000        1
C       25.79480000       5.57403000      15.87130000        1
C        1.95880000       0.42575200      22.54970000        1
C        2.06960000       0.12966700      21.09770000        1
C        0.46697900      12.77860000       5.51212000        0
C        0.52608100      15.00410000       6.66002000        0
C        0.53603000      13.12490000      10.53050000        1
C       33.01130000      10.85470000       5.57447000        1
H       31.23330000      11.52500000       1.96281000        0
C        5.57038000       8.42633000       4.20886000        1
C        5.87363000       7.21684000       3.63707000        1
C        5.50732000       8.65311000       1.59839000        1
C        5.79309000       9.79815000       3.59994000        1
C       25.59670000       3.67629000      14.29810000        1
C       25.74120000       2.27035000      14.01690000        1
C       25.95500000       4.69939000      13.32590000        0
C       26.86630000       5.85349000      11.35030000        0
Cl      24.16620000      15.74610000       1.10073000        0
C        0.01198830      23.39450000      15.69210000        0
C       31.09520000      24.26120000      13.75240000        1
C        1.21467000       0.96957300      15.04050000        0
C        2.02907000       0.34883500      14.08860000        1
Cl       0.98692200      10.87230000      15.70790000        0
Cl      27.08100000      18.30280000      12.65230000        0
C       27.94390000       7.25966000      21.98590000        1
C       28.04680000       8.26701000       0.26072200        1
C       27.64580000       9.65364000      22.60610000        0
C        2.98484000      13.83820000      19.76230000        1
C        5.74261000      17.51590000       2.63900000        1
C        6.21629000      16.14440000       2.04143000        0
C       22.13770000       9.50076000      15.15410000        0
C       22.23210000       8.87333000      10.83540000        1
H       21.94280000       9.86747000      11.30060000        0
C       33.55120000      11.86450000       4.73345000        1
C       32.98330000      11.92150000       3.47863000        1
C       31.96200000      11.28760000       2.87946000        1
C       31.75590000      10.02980000       3.53627000        1
Cl      11.09870000       3.17576000       2.81373000        0
C       33.07220000      14.09560000      12.21850000        1
C       33.85740000      15.15360000      12.58520000        1
C        6.24538000       6.30919000       1.35056000        1
C       32.07690000      13.55500000      13.05110000        1
C       27.57820000       6.94336000      11.45890000        0
C       27.79690000       8.88500000       9.61330000        0
C       31.09270000       7.98033000      10.95770000        1
C       31.08650000       9.38001000      10.89630000        1
C       30.98790000      11.69900000      17.58440000        0
C       30.55710000      12.38550000      18.74540000        0
C       31.55710000       0.95451800      14.14410000        0
C       29.04930000      23.94500000      15.38740000        1
C       28.31390000      13.02070000       0.84529200        0
C       28.24800000      14.51670000       0.21675900        1
C       29.18610000      17.24840000       2.46350000        1
C       28.43810000      18.24460000       1.99575000        1
H       28.67640000       1.21206000       0.41882900        0
C        1.53990000       4.05002000       0.80706400        1
C       31.88700000      22.34760000       1.12570000        0
C        1.49474000      20.22370000      22.34620000        0
C        0.35927600      20.07480000       0.49005600        0
C       32.36440000       9.91781000       4.82345000        1
C       33.15310000      13.79150000      10.72490000        1
C        0.68712800      17.46510000       6.54826000        0
C       32.25200000      17.65020000       7.74926000        0
C        2.85169000      14.24010000      10.51460000        1
C       28.90780000      20.78640000       8.93419000        1
C        1.15436000      15.09240000      12.02530000        1
C        1.48089000      13.97740000      11.04350000        1
C       31.42160000      10.12080000       9.85865000        1
C       31.53580000      11.56530000      10.61410000        0
C       31.86240000      12.95140000       8.84742000        1
C       31.12550000      12.02680000       7.95507000        1
C       31.97270000      15.92390000      19.11670000        0
C       32.55770000      17.31690000      19.19750000        0
C       30.96810000      13.75980000      18.89570000        0
C       31.03850000      15.03400000      19.72310000        0
H       19.92720000      13.99980000      10.73820000        0
C        1.25795000      16.73660000      15.08880000        1
C        3.80973000      13.52010000      14.86660000        1
C        2.16454000      12.25360000      16.07020000        1
C        2.67633000      12.48640000      14.84740000        1
Cl       8.80285000      23.95920000      20.15650000        0
H        2.83619000      11.71550000      14.26980000        0
C        9.72147000      18.47140000      15.04990000        1
C        2.88340000      11.16090000       0.85088000        0
C        5.35360000      19.67410000      16.11010000        1
C        5.91565000      18.60810000      15.40930000        0
H       10.40980000       2.00081000      13.50340000        0
C        2.22722000       7.45709000       1.76910000        0
C        2.14829000       8.81318000       1.32119000        0
C        5.52686000      15.99170000       8.70801000        0
C        5.57690000      13.59650000       8.13165000        1
Cl      20.57910000       9.79697000       8.23905000        0
C        2.11873000      16.30360000      12.16710000        1
C        3.74995000      18.86520000      12.48860000        1
C        3.79048000      15.30950000      10.81280000        1
C        3.47313000      16.53760000      11.40990000        1
C       29.68890000      22.29340000      10.72250000        1
C       29.66400000      23.51500000      10.30090000        1
C       30.66450000      24.42620000      11.03760000        0
C       30.33340000      24.05240000      12.45380000        1
C        0.59594600      17.20590000      13.87460000        1
C        1.85041000      17.39550000      13.08070000        1
C       32.55550000      15.20460000      14.72490000        1
C       33.46600000      16.15020000      13.63200000        1
C       33.21250000      15.52680000      16.22540000        1
C        0.54716200      16.49250000      16.32850000        1
C        0.63508800      17.19540000      17.45350000        1
C       -0.02788310      17.60500000      18.56730000        1
Cl      30.71790000      18.05140000      21.35310000        0
C       27.37320000      24.12770000       5.46234000        1
C       29.11170000       3.25020000       0.36043600        1
C        8.41745000      18.34080000      14.62600000        1
C       27.93550000      22.73500000       5.99726000        1
C        5.83786000      14.82800000       7.66842000        0
C        6.11357000      15.64960000       6.43640000        1
C        5.36372000      16.89310000       6.52745000        1
C        5.02065000      17.16380000       7.98810000        0
C        1.89460000      19.70390000       6.54581000        0
C       33.33420000      20.59960000       5.70085000        0
C        4.12836000      17.71220000      11.75190000        1
C        6.94260000      19.78250000      13.32820000        0
C       31.35750000       2.29756000      13.13770000        0
C       31.12940000       1.25030000      10.77740000        0
C       31.31020000       1.64500000       9.41863000        1
C       31.65620000       3.19882000       9.56510000        1
Cl       7.51628000       9.71909000      15.06370000        0
H        1.52065000      22.51690000      17.53260000        0
C       32.19600000       5.26771000       8.62979000        1
C       31.89710000       5.80182000       9.90551000        1
C        3.78062000      21.20920000      18.36170000        1
C       32.14890000       6.21944000       7.36225000        1
Cl      26.94540000       4.90549000       3.24431000        0
C        0.52655400      18.53410000      19.55000000        1
C        1.67310000      19.43070000      19.29710000        1
C       32.61530000      21.47270000      17.83860000        1
C        4.92522000      21.83460000      17.72560000        1
C       25.31050000       8.39279000      16.50580000        1
C        6.12438000       4.91926000       3.38305000        1
C       33.83550000       5.59036000      22.35230000        1
C       31.17730000       8.24923000      18.84070000        1
C        4.95608000      18.80450000       8.09237000        0
C        4.79322000      19.77720000       7.03507000        1
C        4.56426000      21.28910000       4.22262000        1
C        3.80974000      19.65510000       6.03037000        1
C        3.54246000      21.14300000      12.45080000        1
C        3.86326000      22.45840000      12.05670000        1
C        6.00613000      20.48140000      12.84500000        1
C        4.48522000      19.84010000      12.73650000        1
C       30.27120000       5.00404000      13.33400000        1
C       29.61990000       5.63138000      14.35700000        1
C       31.06350000       5.72371000      12.23440000        1
C       30.83000000       7.33696000      12.17530000        1
H        0.24542300       5.05666000      15.09470000        0
C       30.75500000       3.56185000      13.61870000        1
C       31.39840000       2.45710000      17.63580000        1
C       31.27900000       5.03426000      11.21410000        1
C       31.33910000       3.79983000      10.70410000        1
C        0.18805700       0.18012600      15.71960000        0
C       33.17290000       0.72816100      16.92460000        1
C       30.42390000       3.51899000      17.43020000        1
C       32.93000000       4.17753000      20.80720000        1
C        5.44452000       5.91559000       5.60841000        1
C        4.86002000       7.08080000       6.11200000        1
C        5.96308000       3.65422000       4.02490000        1
C        5.66028000       6.08838000       4.30300000        1
C        3.66820000      20.38430000       4.45211000        1
C       30.84970000       4.39901000      19.62870000        1
C       31.13420000       5.79583000      19.79850000        1
C       33.46230000      10.79570000      19.54850000        0
C        3.59888000       2.77201000      11.26380000        0
C        2.32254000       1.74306000      13.22850000        1
C        3.43511000       0.35872500      11.73070000        1
C        2.94348000       1.63720000      11.91890000        1
C       30.50300000       8.02734000      13.43460000        1
C       30.59170000       9.48254000      13.41860000        1
C       30.60830000      10.23160000      12.16250000        1
C       31.19670000      11.44040000      12.09560000        1
C       30.83230000       3.08576000      15.08720000        1
C       30.09680000       3.74676000      16.11900000        1
C       32.00140000       1.72542000      16.64520000        1
C       31.30860000       1.85782000      15.40360000        1
C        0.15271400       3.49361000      21.55380000        1
C       30.01430000       4.55774000      18.24390000        1
C       29.99590000       6.08079000      17.68570000        1
C       31.06990000       6.65711000      18.68980000        1
C        6.36139000      10.69430000       4.44006000        1
C        6.96130000      11.84810000       3.95593000        1
C        4.74793000       8.65118000       5.47309000        1
C        4.72849000       9.92199000       6.21424000        1
C        0.66284300      11.54350000      19.40670000        0
C        1.64399000      12.26470000      18.74750000        1
C        2.16707000      12.79550000      17.39040000        1
C        3.17688000      13.96100000      17.45840000        1
Cl       3.90470000       9.65778000      13.81210000        0
C        1.77299000       6.07097000      12.06690000        1
C        2.02114000       7.00456000      11.06370000        1
C        1.53450000       4.12925000      13.48940000        0
C        2.32409000       4.83099000      12.20680000        1
H        9.96402000      21.21450000       7.02330000        0
C       31.52530000      12.37610000      13.12410000        1
C       32.04460000      13.98050000      14.64650000        1
C       32.18410000      18.32610000      13.77090000        0
C       33.72930000      18.59990000      14.06090000        1
C       30.00450000       8.56834000      16.31360000        0
C       29.27250000       7.77501000      15.50390000        0
C       29.50260000       5.15683000      15.60490000        1
C       29.31240000       6.32777000      16.44380000        1
C       32.95250000       5.49337000      21.21110000        1
C       32.04160000       6.39792000      20.88240000        1
C       32.47010000       7.71777000      21.19470000        1
C       31.87170000       8.93911000      20.20150000        1
Cl       4.38249000      22.87690000      16.23520000        0
H       28.84350000       4.52990000      18.49330000        0
C        6.58920000      11.00640000       1.45967000        1
C        7.15121000      11.10050000       0.13753300        1
C        7.07476000      11.99350000       2.49653000        1
C        1.89829000       5.08804000       1.73121000        0
C        4.56665000      16.38960000      15.23490000        1
C        4.70822000      15.08790000      21.34210000        1
C        3.75456000      14.02040000      21.27530000        1
C        2.48981000      10.07890000       1.39657000        0
C        2.52934000       9.83287000       9.14689000        1
C        2.41633000      11.14360000       9.63853000        1
C        1.67140000       8.36943000      10.91180000        1
C        2.00715000       8.79423000       9.68427000        0
Cl      11.55780000      19.15170000       0.94035500        0
C       31.42390000      16.03660000      10.32790000        0
C       30.18380000      16.31710000       9.71860000        0
C       29.59390000      17.75020000      10.30120000        0
C       30.40680000      18.16930000      11.24030000        0
C       30.70230000      10.33570000      14.58100000        1
C       31.16230000      11.60500000      14.33410000        1
C       29.64670000       7.33242000      14.27210000        1
C       30.83830000       9.78271000      15.92250000        0
C       32.56540000       9.99824000      19.93340000        0
C        2.33453000      18.99980000      18.03620000        1
C        1.87085000      17.80590000      17.06990000        1
C        2.32924000      17.66040000      15.71620000        1
C        3.05127000      13.04450000      22.03490000        0
C        5.94972000      20.61670000      16.99670000        1
C        5.88690000       9.84486000       2.18292000        1
C        5.57071000      15.10550000       1.06489000        0
C        5.63127000      15.30510000      22.37110000        0
C        2.15023000       6.25370000       1.89001000        0
C        0.50834000       6.76198000      22.36470000        1
C        1.70256000       7.37106000      22.00930000        0
C        5.05865000      13.94830000       9.55269000        1
C        4.98686000      15.19860000       9.90889000        0
C        3.73885000      11.98100000       9.15897000        1
C        3.87505000      13.13550000       9.88011000        1
Cl       9.25594000      16.87330000      10.68820000        0
H       28.36900000      20.23610000       8.13566000        0
C       29.95480000      19.38610000      11.80420000        0
C       28.70300000      19.93140000      11.21260000        0
C       27.42220000      19.70810000      11.71880000        0
C       28.99390000      21.02380000      10.29400000        1
C       31.41960000      14.05620000      17.35740000        0
C       32.46630000      15.17040000      17.34790000        0
C       31.43050000      12.70490000      15.50370000        0
C       31.21810000      12.80100000      16.88560000        0
C        4.82401000      16.44230000      17.73150000        1
C        5.87094000      15.96630000      13.27300000        0
C        7.30220000      17.86610000      15.51060000        1
C        6.43256000      16.99850000      18.02860000        1
C        9.16976000       3.41552000       0.30278100        0
C        8.67137000      10.36040000      21.10060000        1
C       10.65880000       1.61181000      22.19180000        1
C        9.56111000       2.15101000      22.43350000        0
H        4.92536000      13.41950000      13.32300000        0
C        3.48458000      18.10490000       3.61464000        1
C        4.57744000      14.34690000       1.79433000        0
C        4.35394000      18.01970000       2.51335000        1
C        6.52521000      21.77820000       7.38142000        0
C       12.90660000      12.17380000       7.15048000        0
C       10.78340000      12.23320000       6.03169000        0
C        6.88347000      12.86400000       4.98649000        1
C        7.25831000      14.18170000       4.62092000        1
C       12.03920000      19.07270000       8.02676000        1
C       10.83720000      18.17470000       8.30594000        1
C        9.58610000      18.81140000       8.68326000        0
C        8.88812000      19.85700000       9.22038000        0
Cl       0.10224300      10.39840000      12.41850000        0
C        3.50493000      18.58630000      15.29000000        1
C        2.35162000      18.85520000      13.31020000        1
C        3.80701000      14.48900000      16.39710000        1
C        4.65209000      17.82040000      15.13180000        0
C        7.38343000      17.41600000      16.82280000        1
C        8.76220000      17.50820000      17.10410000        1
C        9.29458000      17.28100000      18.36120000        1
C        8.57627000      17.04520000      19.57930000        1
C        8.88406000       8.21089000      21.11340000        1
C        9.38457000       6.93271000      21.01590000        1
C        9.61480000       9.36865000      21.01690000        1
C       11.56630000      22.24760000       0.35236000        0
C        5.49508000      20.87140000       6.76968000        1
C        6.64118000      24.11970000      21.75050000        1
C        5.15221000      23.25390000       0.75238100        1
C        5.16998000      22.70550000       2.06584000        0
C       11.36840000      10.99360000       5.67899000        0
C        3.16649000       4.34588000      11.27980000        1
C       12.70680000      11.06150000       6.44679000        0
C       11.29930000      10.42060000       4.60345000        0
C       12.01210000      20.63440000       7.93597000        1
C       10.78090000      21.47500000       7.62967000        1
C        8.74868000      20.72590000      10.30540000        0
C        7.76037000      18.86240000      13.57640000        0
Cl      14.85090000      24.10320000      16.80310000        0
C        2.97342000      21.40440000      19.38530000        1
C        6.81907000      21.50790000      17.44110000        0
C        3.76937000      19.45350000      16.27500000        1
C        3.55982000      19.60060000      17.57110000        1
C        7.13612000      16.84410000      19.27090000        1
C        6.42915000      16.28840000      20.45650000        1
C        6.73784000      15.99980000      21.72730000        1
C       10.65420000      16.67060000      21.09280000        1
C        9.07639000      17.01240000      20.85930000        1
C       12.87810000      16.90630000      21.36620000        1
C       14.04850000       8.19525000      15.48340000        1
C       11.84060000      16.92350000      20.40030000        1
Cl       3.35238000       6.87544000      22.03710000        0
C        6.54334000      23.65670000       0.45037800        1
C        5.85011000      23.07970000      19.54360000        0
C        5.78368000      23.56030000      20.81430000        1
C        6.01519000      22.17020000      18.43640000        0
C        7.17085000       1.30132000       3.46134000        1
C        7.03757000      24.23550000       6.58859000        1
C        0.97224200       2.43958000      14.91030000        0
C        1.66832000       2.79035000      13.76390000        0
Cl      16.89410000      20.98700000      21.51790000        0
C        8.57140000      21.83230000      10.72100000        0
C        7.60613000      22.30810000      11.54940000        0
C        6.25618000      21.83280000      12.16990000        1
C        5.09142000      22.78610000      11.82150000        1
C       33.74830000       0.60353100      18.26250000        1
C       32.06940000       3.40557000      19.93480000        1
C        2.67193000      22.76820000      19.60350000        1
C        0.89457800      24.35550000      18.93430000        1
C       11.17770000      12.38560000       0.02269070        0
C       13.04580000      16.27590000      22.53820000        1
C       10.05690000      17.85710000      16.31810000        1
C        4.93968000       2.71769000      19.45180000        0
C       12.71080000      17.42460000      16.74680000        1
C       15.52110000      18.43980000      14.49670000        1
C       14.06790000      16.94280000      18.98050000        1
C       14.01130000      17.88680000      16.21640000        1
C        0.56050100       4.40997000      22.59220000        1
C        0.98541900       1.17167000       4.40210000        1
C        1.90112000       2.74053000       0.84433000        1
C        2.76010000       0.77152800       1.93960000        1
C        6.24722000       2.20985000       7.52784000        1
C        6.40185000       2.13182000       6.21504000        1
C        6.81342000      22.85800000       6.37566000        1
C        7.72838000       0.41681800       7.79842000        1
C        5.76220000      24.13520000      11.30180000        1
C        7.07833000      23.83090000      11.26210000        0
C        8.00108000       2.28965000      10.54620000        1
C        7.04386000       2.11927000       9.62998000        1
C        5.91406000       3.24077000       9.69929000        1
C       33.14450000       1.52527000      19.11400000        1
C       32.08760000       2.15471000      18.92960000        1
C        6.92955000       1.38364000       8.29041000        1
H       25.40160000       6.56388000      15.52890000        0
C        6.30371000       2.92301000      18.95470000        0
C        0.87947100       8.66874000      21.98490000        0
C       33.46700000       7.96520000      21.84400000        1
C        1.56357000       9.77129000      21.97140000        0
Cl       6.62560000       1.73318000      17.42180000        0
Cl       0.17975400       3.37390000      16.19890000        0
C       14.91900000      20.69380000      13.72200000        1
C       14.16530000      20.39440000      14.84060000        1
C       14.27120000      19.03850000      15.34550000        1
C       15.32470000      17.48470000      16.69250000        1
Cl       3.43075000       2.08232000      18.87970000        0
C        2.17493000       1.93116000       2.15783000        1
C        6.55610000       6.88922000       0.11938600        0
C        6.62654000       4.92465000       2.08141000        1
C       30.71330000      10.47990000      17.07420000        0
H       25.22590000       7.79961000      15.64120000        0
C        6.52329000       2.69851000       3.17368000        1
C        7.20834000       3.47000000       1.94927000        1
C        6.69674000       0.65919100       5.72291000        1
C        6.79445000       0.28140200       4.44815000        1
C        9.82273000      23.93090000       7.53094000        1
C        9.05074000       0.14343800       8.34675000        1
C        4.93497000       5.34643000       9.65846000        1
C        5.39474000       4.64344000       7.57282000        1
C        6.13625000       4.48119000      10.25930000        1
C        7.03524000       7.72044000      11.70290000        1
C        8.13992000       3.57314000      11.29490000        1
C        7.23553000       4.83668000      11.14640000        1
C        2.17572000      10.88030000      21.89010000        0
C        2.17259000      12.23450000      21.34050000        0
C        2.29549000      12.70110000      19.94150000        1
C        3.55428000      14.62120000      18.73920000        1
H        6.90048000       7.76558000      14.78890000        0
C       15.50030000      17.18500000      18.22150000        1
C        8.25832000       2.97624000       1.19564000        1
C       13.02440000      21.77770000      15.05770000        0
C       16.22240000      17.54850000      15.47130000        0
C        0.80113000       8.90554000      12.09750000        1
C        0.49218100       7.66566000      12.93650000        1
C        0.79214600       6.37033000      12.95540000        1
C        0.59824000       5.25699000      13.85860000        0
C        4.74453000       7.10692000       7.52687000        1
C        5.21508000       5.87886000       8.33427000        1
C        5.94145000       3.32994000       5.50878000        1
C        5.62202000       4.56880000       6.32048000        1
C        3.58812000       5.50873000      10.40240000        1
C        2.67210000       6.64617000       9.84358000        1
C        2.69958000       7.78994000       9.07799000        0
C        3.82890000       8.01570000       8.18830000        0
C        7.13427000      11.25990000      11.39270000        1
C        7.79568000      12.21320000      10.69290000        1
C        7.01472000       9.86919000      13.31850000        0
C        7.11339000      11.33250000      12.80010000        0
C        3.40137000      12.28040000       0.50688800        0
C        5.29355000      15.60900000      20.10740000        1
C        4.49062000      15.65340000      18.94730000        1
C        6.51887000      15.30450000      12.40820000        0
C        7.21774000      24.12410000       1.72175000        1
C        8.57384000       1.08464000      22.55330000        0
C        7.81765000       0.63773000       2.28951000        1
C        8.26496000       1.56508000       1.15677000        1
C        7.11643000      15.49380000       5.47301000        1
C        7.22048000      16.79070000       4.23845000        1
C        5.94454000      17.41750000       4.01254000        1
C        5.11878000      17.58170000       5.18384000        1
C        5.59381000      10.86270000       5.58747000        1
C        5.90742000      12.25820000       6.15881000        1
C        7.00649000       7.55905000      10.33620000        1
C        5.61316000       3.26559000       8.25258000        1
C        3.63150000       9.58439000       8.24529000        1
C        4.23563000      10.35990000       7.35142000        1
C        4.32840000      11.62470000       7.91108000        1
C        5.48884000      12.37780000       7.43278000        1
C        5.05088000      15.46800000      14.19470000        1
C        4.67450000      14.07500000      13.92150000        1
C        8.23629000      13.89020000      11.16120000        0
C        7.49490000      14.67190000      12.05200000        0
C       13.98630000      10.24660000      11.88480000        1
C       14.00590000      11.66590000      12.42940000        0
C        3.81347000      13.44560000       1.46945000        0
C        8.33125000      16.24470000      21.84260000        1
C        6.73243000       8.86468000      21.97950000        1
C       11.24200000      17.74580000      16.95920000        0
C        7.34403000      10.21240000      21.76630000        1
C        7.51413000       7.96081000      21.14400000        1
C       10.51380000       6.50904000      20.35910000        1
C       10.67250000       5.19869000      20.13470000        1
C        4.54238000      15.56740000      16.49100000        1
C        7.18614000      15.68370000       2.85997000        0
C       15.02390000      16.80820000       4.33561000        1
C       14.57820000      17.59270000       3.19323000        1
C       15.15070000      14.40520000       5.24316000        1
C       14.82370000      15.41140000       4.09726000        1
C        8.09717000      10.73620000       8.81604000        1
C        8.27524000      11.95640000       9.37547000        1
C        8.90033000      13.30320000       8.72051000        0
C        9.15700000      13.53260000       7.48976000        0
H        9.67209000       4.33285000      15.18370000        0
C       11.11450000      16.75290000       8.35496000        1
C       12.52430000      16.27540000       8.58138000        1
C        9.64120000      15.45620000       9.86743000        0
C       10.21180000      15.75530000       8.78358000        1
Cl      16.58080000       6.21259000       4.34646000        0
C       15.20770000      17.56510000      10.66230000        1
C       14.95670000      18.91030000      10.31090000        1
C       15.00750000      19.82240000      11.40290000        1
C       15.39820000      19.66860000      12.76190000        1
Cl      13.57630000       5.70998000       5.46825000        0
C       15.43450000      16.49500000       0.00760418        1
C       14.24840000      16.57860000       0.59614200        1
C       10.71910000      17.53190000      18.33170000        0
C       11.82970000      17.27800000      19.02400000        1
C        7.38802000      14.30690000       3.14766000        1
C       14.68230000      18.93190000       3.08781000        1
C       13.89990000      19.92440000       2.33220000        1
C       14.75070000      21.22030000       2.47990000        1
C        3.89925000      18.47160000       5.04432000        1
C        8.09610000       0.18281300      21.49210000        0
C        6.43163000      22.56820000       5.10462000        1
C        5.47060000      21.51240000       5.12776000        1
Cl      10.36780000      21.38870000      22.46090000        0
H        1.51184000      19.86040000       7.52562000        0
C       10.69260000      14.79310000       7.86727000        1
C       11.90240000      14.15660000       7.58047000        1
C       12.02560000      13.09990000       6.79395000        0
C       11.78450000       8.75622000       3.58607000        0
H       19.02810000       0.41529600      10.42850000        0
H       10.17250000      21.42170000       8.77878000        0
C       14.48440000      16.58580000       9.97176000        1
C       13.55650000      17.17740000       8.78565000        1
C       12.79320000      14.95050000       8.62317000        1
C       14.43260000      15.33100000      10.16790000        1
H       10.53740000      12.89020000       5.11473000        0
C       15.58440000      18.31190000      13.09450000        1
C       12.63560000      22.79200000      11.25830000        1
C       11.70850000      23.82640000      12.13410000        1
C       11.06200000       0.29086500      11.39370000        1
C       20.02080000      19.22120000      20.72040000        0
C       19.14620000      16.94450000      21.80630000        0
C       12.87570000      17.20090000      18.26470000        1
C       16.76750000      16.21850000       0.21215800        0
C       12.71340000      20.21750000       1.60178000        0
C       12.60440000      21.61810000       1.12195000        0
C       14.17540000      22.20310000       1.60501000        1
C       14.62760000      23.55840000       1.46431000        1
Cl      22.65260000      11.95160000      17.75280000        0
C       15.56270000       6.47298000       7.47881000        1
C       14.10670000       8.52138000       5.91072000        1
C        6.36679000      23.32780000       2.55211000        1
C        6.73751000      23.46180000       4.03205000        1
C       11.04150000       9.92836000       3.43385000        0
C        8.04616000      12.14380000      22.59820000        1
C        8.08070000      13.44520000       0.57216700        1
C        7.55557000      13.39450000       1.96249000        1
C       13.94700000      20.71990000       9.32736000        1
C       14.22340000      20.86670000      10.87960000        1
C       13.19700000      18.44880000       8.60327000        1
C       14.08140000      19.34610000       9.26451000        1
C       10.85510000       0.10434800       9.81925000        1
C        9.67246000       0.63842900       9.50319000        1
C        9.21431000       1.60077000      10.31380000        1
C       10.16710000       1.47123000      11.52180000        1
C       15.64750000      23.88220000      20.36900000        0
C       15.97270000       0.52643200      20.07440000        1
C       17.48830000      21.59810000      20.08940000        1
C       17.07770000      22.98650000      19.90080000        1
C       13.97230000       0.37054800       0.84243900        1
C       11.72230000      23.73700000       0.01556650        1
C       10.90870000       0.01386090      22.20430000        1
C       14.54480000       1.39724000       1.70753000        1
H       17.68830000      14.97580000      18.19230000        0
C       16.63210000       4.31143000       8.53096000        1
C       20.06260000       8.53601000       5.58893000        1
C       16.17360000       5.69422000       6.53140000        1
C       16.96010000       4.45600000       7.13166000        1
C       14.75410000       6.29614000      14.11710000        1
C       15.70230000       4.94572000      11.90900000        0
C       16.42680000       4.66718000      10.81170000        0
C       17.69810000       3.46345000       9.22031000        0
C       12.91860000      22.62550000      13.95410000        1
C       11.77000000      23.54430000      13.58960000        1
C       13.53230000      21.78420000      11.78500000        1
C       13.92600000      21.87850000      13.20020000        1
C       10.06500000       2.43018000      12.58020000        1
C        9.10759000       3.41964000      12.32480000        1
C        8.93578000       4.74894000      13.02760000        1
C        9.02478000       4.91698000      14.32920000        1
C       10.63530000      24.49690000      15.60350000        0
C       11.07010000      24.07710000      14.51610000        0
C       13.89540000       1.94019000      20.68070000        1
C       11.72160000       2.15207000      21.49720000        1
C       13.04390000       0.41212200      22.67430000        1
C       12.88200000       1.48884000      21.79170000        1
C       11.54890000       3.45929000      21.26520000        1
C       12.46180000       4.04207000      20.30710000        1
C       16.02700000       3.55001000       2.98052000        1
C       17.82980000       7.05970000       1.04118000        0
C       20.49720000       6.45037000       3.02102000        0
C       19.31370000       4.09735000       3.31810000        0
C       17.46630000       3.36990000      10.54140000        0
C       16.10370000       5.14435000       9.49839000        1
C       15.41660000       6.34624000       8.96671000        1
C       14.64210000       7.45461000       9.23553000        1
Cl       0.11605900      20.70270000      10.10380000        0
C       15.00670000      13.78210000      14.77800000        1
C       13.88930000      12.68760000      11.66790000        1
C       14.30350000      11.47820000      13.79350000        1
C       14.84390000      12.40180000      14.87640000        1
C        8.11845000       6.19546000      14.71710000        1
C        6.91764000       6.92448000      14.18400000        1
C        7.19659000       6.81350000      12.71220000        1
C        7.83414000       5.51494000      12.29410000        1
Cl       6.91573000       5.65425000      16.60710000        0
Cl       3.90183000      18.23530000       0.62552400        0
C       13.99050000       7.99679000      12.93600000        1
C       13.82700000       7.42819000      14.35940000        1
C       14.30230000       7.16013000      11.90980000        1
C       14.76000000       5.95888000      12.70500000        0
H       21.47630000      16.25430000       3.25167000        0
C       11.92510000       4.98178000      19.43730000        0
C       15.32470000       5.34371000      17.65720000        0
C       12.59770000       6.08937000      19.67260000        1
C       14.58190000       6.92571000      20.82040000        1
C       19.28650000       8.10902000       4.43312000        1
C       18.22140000       9.22725000       4.30210000        1
C       18.18910000       7.58144000       2.38444000        0
C       19.61050000       7.43771000       3.15653000        0
C       14.91470000       8.34427000       8.12023000        1
C       14.72540000       9.79266000       8.40383000        1
C       14.30530000      10.52710000       9.60493000        1
C       14.22030000      12.04240000       9.26799000        0
Cl       8.41831000      21.63210000      17.05810000        0
C       15.09220000      14.16880000      13.48670000        0
C       14.55800000      13.90760000      12.18280000        1
C       13.77870000      13.16520000      10.03810000        1
C       13.85750000      14.36940000       9.49535000        1
C       14.71390000      10.65640000       7.13089000        1
C       14.16340000      11.94220000       7.89216000        0
C       14.26130000       7.77213000      10.56370000        1
C       14.00560000       9.59456000      10.53560000        1
C        8.70830000       5.87548000      21.73070000        1
C        7.55562000       6.72292000      21.81560000        0
C       10.20610000       4.30169000      21.06220000        1
C        9.21691000       4.39179000      22.08710000        1
H        5.16815000      17.70630000      11.78490000        0
C       17.73270000       8.98258000       2.68793000        1
C       13.87270000       7.87786000      21.51500000        1
C       12.60410000       8.09299000      21.00220000        1
C       11.89240000       7.03333000      20.27380000        1
C       16.33800000      12.26270000       4.82776000        1
C       15.30520000      13.13410000       4.48118000        1
C       17.76670000      10.32710000       4.99184000        1
C       16.96350000      11.15620000       4.13948000        1
C        7.13791000       9.06055000      12.14160000        1
C        7.16272000      10.02660000      10.88250000        1
C        6.68635000       8.52561000       9.69730000        1
C        7.20682000       9.71152000       9.70311000        1
H        9.02262000      10.04520000       8.53697000        0
C       15.60690000      16.00590000      12.25530000        1
C        9.04538000      14.15220000      10.00060000        0
C       14.98930000      14.96500000      11.59280000        1
C       15.46700000      17.41540000      12.07000000        1
C       15.66880000      11.76780000      15.88010000        1
C       16.31820000      12.45200000      16.74090000        1
C       16.31800000      13.83990000      16.99370000        1
C       15.86240000      14.49020000      15.60550000        1
C       12.40950000      12.18760000       0.60465100        0
C       10.83740000      13.65320000       0.16908700        1
C        9.34319000      15.46260000      22.66020000        1
C       10.68950000      15.90570000      22.16750000        1
C       16.48750000      10.94620000       2.67436000        1
C       14.70280000      12.79030000       2.99063000        1
C       15.25660000      11.62430000       2.29331000        1
C       15.78700000      14.96960000       6.29499000        1
H       16.98450000      12.70030000       5.69141000        0
C       22.67930000      16.06320000       7.16701000        0
C       22.55680000      17.41090000       7.76358000        1
C       19.65610000      15.13400000       8.73515000        1
C       20.68450000      15.98910000       8.42182000        1
C       16.35150000      14.03790000       7.49063000        1
C       16.54220000      16.99520000       7.66460000        1
C       17.00750000      18.36100000       7.63340000        1
C       16.68160000      19.50500000       6.55776000        1
C       19.10630000      20.88150000       9.27862000        0
C       18.82670000      22.24070000       9.16666000        0
C       18.07620000      18.77400000       8.72993000        1
C       18.01890000      20.03790000       8.97113000        1
H       13.45550000      22.53270000       8.17902000        0
C       17.25170000      14.07230000      18.07450000        0
C       18.69700000      12.70440000       1.28379000        0
C       18.89680000      15.15850000       1.10971000        0
C       19.28500000      18.30360000      21.15050000        0
C       13.06410000      13.44370000       1.11208000        0
C       14.07760000      13.81960000       2.07862000        1
C       11.98510000      14.38650000       0.63095200        1
C       11.82810000      15.62930000       0.11154300        1
C       15.56880000      16.59720000       6.83931000        1
C       15.21390000      17.43850000       5.82428000        1
C       15.68340000      18.97530000       5.72966000        1
C       15.35330000      19.64730000       4.33073000        1
C       22.60160000      21.23670000       6.91261000        1
C       23.21010000      21.25920000       5.73476000        1
C       22.98680000      18.75020000       6.99720000        1
C       22.51770000      20.06760000       7.60647000        1
C       17.07450000      21.32630000       8.22174000        1
C       17.54640000      22.74160000       8.71156000        0
C       16.61590000      20.88900000       6.69488000        1
C       16.02460000      21.59930000       5.59358000        1
H       17.01000000       0.23312900       8.24825000        0
H       15.59400000      22.42790000       6.07624000        0
C       20.90490000       0.31977700       6.91736000        1
C       17.81740000      24.13860000       8.57310000        0
C       20.05170000      22.97530000       9.02769000        0
C       19.39700000      24.15700000       9.02035000        0
C       20.36020000      17.87150000      17.91800000        0
C       21.62290000      17.71640000      18.25810000        0
C       22.82880000      17.12130000      18.91400000        1
C       19.06670000      17.61610000      17.91140000        0
H       19.64540000      12.25580000       1.12441000        0
C       14.15290000      17.05420000      20.48770000        1
C       18.08570000      17.32450000      18.67220000        0
C       14.56910000      15.34160000       2.60292000        1
C       15.27710000      16.45130000      21.12190000        1
C       15.59060000      20.90590000       4.27662000        1
C       15.84490000      21.70130000       3.24952000        1
C       10.90630000       0.16109900       4.18061000        0
C       15.95710000      23.65340000       1.86862000        1
C       22.77200000       0.28535300       4.86706000        1
C       22.16430000       1.57594000       5.07969000        1
C       23.88350000      22.50360000       5.47775000        1
C       22.80910000      23.85350000       5.84678000        1
C       11.37460000      23.40730000       9.32087000        1
C       10.81380000      22.88190000       8.01536000        1
C        9.96781000      24.23880000       6.19760000        0
C       10.00690000      24.39750000       4.91947000        0
C       20.74770000       0.53385400      15.35810000        1
C       20.08800000       1.81232000      15.57980000        1
C       21.65590000      22.09100000      16.93090000        0
C       20.48090000      24.21490000      16.34340000        1
C       19.87250000      20.20090000      19.87570000        0
C       18.71000000      21.30160000      19.56780000        1
C       19.30250000      22.21740000      18.54490000        1
C       18.80960000      23.50380000      18.48410000        1
C        4.65228000       0.69241400      10.99890000        1
C        3.13341000      23.67420000      12.47920000        1
C       14.31470000      16.51500000       2.05617000        0
C        4.86693000       2.16392000      10.73510000        0
C       13.76460000      10.04660000       6.32000000        1
C       11.83440000       0.75461900       3.35164000        0
C       12.66690000       1.60226000       3.00913000        0
C       18.80010000       4.45630000       1.99309000        0
H        8.99022000      12.50840000       6.58569000        0
C       23.85590000       2.28190000       1.06590000        1
C       26.08740000       1.30314000       0.85310800        0
C       24.36730000       4.21864000       0.51519400        0
C       22.76550000       1.03010000       1.22191000        1
C       12.93480000      21.62510000       8.75716000        1
C       12.32710000      22.67540000       9.95918000        1
C       16.63020000      22.77370000       2.87575000        1
C       14.80320000       7.77412000       6.96052000        1
C       16.79280000       5.43468000      15.73880000        1
C       16.63910000       4.96636000      17.28600000        1
C       19.19830000       2.09021000      16.47110000        1
C       18.31500000       3.32517000      16.17490000        1
Cl      18.11440000       9.04877000      15.49810000        0
C       17.74370000      23.91760000      19.38000000        1
C       17.30190000       0.74486500      19.46530000        1
C       17.73890000       1.58587000      18.57770000        1
C       17.17380000       2.60704000      18.25430000        1
C       16.71830000       7.60217000       0.19684300        0
C       15.62950000       8.59388000       0.24726400        0
C       14.71720000      10.91470000       1.24983000        0
C       15.70310000       9.76933000       0.99564400        0
C       16.04010000       1.57199000       1.48102000        1
C       16.67820000       0.35678200       1.46606000        1
C       17.92660000      24.45540000       1.27382000        1
C       19.00020000       0.83273400       1.06126000        1
C       22.10740000       6.44027000      10.63160000        1
C       23.03070000       3.86185000       9.98423000        1
C       23.95030000       5.57892000       0.89605800        1
C       23.54230000       3.13162000       0.05696650        1
C       13.20030000       7.65745000       5.00700000        0
C       12.36620000       7.75280000       3.93717000        0
C       21.69590000       5.77373000       3.18052000        0
C       18.98240000       3.77507000       4.48186000        0
H       18.98610000      15.76030000       4.80901000        0
C       17.75710000       9.72400000      19.26740000        0
C       15.40390000       8.23432000      17.62180000        1
C       14.75280000       5.90833000      16.58860000        1
C       14.67280000       7.38678000      16.56190000        1
C       17.57140000       3.84997000      17.28300000        1
C       16.00650000       2.79974000      19.43630000        1
C       14.91350000       4.00714000      19.73240000        0
C       15.31000000       5.76185000      15.32080000        1
Cl       4.68887000       3.38438000      20.96660000        0
C       12.08370000       9.66160000      21.54140000        0
C       10.86010000      10.07130000      21.39360000        0
C       14.40500000       8.84441000      22.27100000        0
C       12.89760000      10.13400000      22.50460000        0
Cl      11.70450000      21.11910000      15.78050000        0
C       18.66450000       2.25418000       0.71324800        1
C       21.42440000       1.45078000       0.84134600        1
C       20.93200000       2.39169000      -0.01622720        1
C       19.63730000       2.95515000      22.43890000        1
Cl      20.18920000      13.50200000      20.73540000        0
C       24.54530000      10.49830000       2.75919000        0
C       19.57350000       9.39030000       6.59875000        1
C       23.40550000       4.89256000       9.06175000        1
C       22.76550000       4.03214000       4.48833000        0
C       14.04980000       2.18675000       2.50384000        1
C       14.80290000       3.07177000       3.44977000        1
C       23.76850000      11.42790000       3.42044000        0
C       22.97730000      11.90250000       4.28939000        0
C       17.02720000      11.75550000      17.83410000        1
C       17.37700000      12.86160000      18.64990000        0
C       15.78570000       9.58162000      17.33330000        1
C       17.08680000      10.44570000      18.12440000        1
C       14.03400000       9.36041000      12.87090000        1
C       14.05580000      10.16110000      14.13090000        1
C       14.30040000       9.57582000      15.37330000        1
C       15.22960000      10.31080000      16.21190000        1
C        9.00032000      11.68200000      21.61870000        0
C        9.45623000      14.15850000       0.51339400        1
C       10.52880000      11.49080000      21.76810000        0
C       13.37000000      11.10660000       0.59572500        0
C       22.06680000       3.34585000      22.46560000        1
C       22.00990000       5.85150000      22.38840000        1
C       18.63590000       5.66623000       1.00914000        0
C       16.84400000       9.88359000       2.05189000        1
C       18.75960000      12.99730000       7.51043000        0
C       19.65410000      13.97790000       8.14299000        0
C       18.69260000      10.73280000       6.13515000        1
C       18.61390000      11.96080000       6.77859000        0
C       22.37360000      12.49790000       5.45326000        0
C       21.71650000      13.07140000       6.35707000        0
C       21.10120000      13.89450000       7.34096000        0
C       21.65560000      15.14640000       7.56721000        0
H       25.07590000      15.32230000       0.25163900        0
C       17.19750000      16.90020000      14.87060000        0
C       19.30130000      17.79940000       9.01381000        1
C       15.85540000      15.41520000      13.56190000        0
C       16.74070000      15.37310000      14.61930000        0
Cl      11.02960000      17.88090000      13.96490000        0
1242
Lattice="33.41414797 0.0 0.0 0.0 24.2016034478 0.0 0.0 0.0 22.3913252279" Properties=species:S:1:pos:R:3:ring:I:1 timestep=8079 pbc="T T T"
C       19.64150000      17.49610000      14.05280000        0
C       20.16830000      16.18410000      13.35870000        0
C       21.72440000      16.02550000      12.97990000        1
C       22.50120000      17.26330000      12.72690000        1
C       27.14860000      11.92870000      19.05610000        1
C       24.82890000      18.72130000      18.05570000        1
C       26.73380000      14.36180000      18.53000000        1
C       27.18020000      13.30320000      19.39400000        1
C       21.97750000      16.84130000       1.99885000        1
C       21.31570000      14.98220000       3.44034000        0
C       16.71460000      17.83210000      20.87200000        0
C       17.79030000      17.73950000      21.79450000        0
Cl       9.79431000      19.89100000       5.45407000        0
C       23.67910000      18.85900000       4.64867000        0
C       23.70840000      19.77380000       3.38014000        1
C       22.40550000      18.04750000       6.39168000        1
C       23.25220000      19.19370000       5.95368000        1
H       26.22530000      20.72840000       4.76456000        0
C       16.77070000      15.97560000       9.40829000        1
C       20.42360000      16.83680000       9.12321000        1
C       19.82230000      17.91340000       9.60804000        1
C       20.13880000      19.31150000       9.35948000        1
C       23.59620000      17.52220000      11.83260000        1
C       23.83620000      18.93200000      11.62510000        0
C       23.69800000      14.87800000      11.45800000        1
C       24.07060000      16.21590000      11.01640000        1
Cl      26.73970000      23.69940000      12.56730000        0
C       22.20110000      18.48070000      13.29720000        1
C       21.64900000      18.65060000      14.66940000        1
C       21.44880000      20.05680000      15.07220000        1
C       23.51890000      18.27260000      17.31370000        1
C       28.54400000      20.77090000       0.46753200        1
C       24.53530000       0.71048000      21.13270000        0
C       22.54630000      14.49290000      16.45530000        1
C       23.29310000      22.63990000      21.38040000        1
C       22.09680000      20.72660000       0.90325000        1
C       22.78760000      19.40960000       1.04500000        1
C       21.76430000      18.48870000       0.34284400        1
C       21.57330000      17.12100000       0.60833300        1
C       21.89430000      23.21010000       4.72801000        0
C       21.92680000      23.09640000      22.07200000        0
C       23.16220000      18.86760000       2.25596000        1
C       22.86120000      21.91220000       4.65617000        0
Cl      23.05050000      11.50660000      14.65270000        0
C       19.78620000      20.54930000       9.98274000        1
C       20.56930000      21.79120000       9.50156000        1
C       21.21370000      21.58490000       8.31946000        1
C       21.06540000      22.52750000       7.50451000        1
H       21.93770000      17.67860000      15.43700000        0
C       31.37830000      22.61510000      14.69990000        1
C       23.62970000      23.72460000      10.85370000        1
C       32.14920000      21.37700000      15.10050000        1
C       23.60940000      22.20750000      10.94130000        1
C       22.34580000      18.78630000      18.06100000        1
C       22.30290000      19.81770000      19.04610000        0
C       20.00710000      20.32160000      17.63260000        0
C       20.89340000      22.13280000      15.88600000        1
C       19.47420000       2.61913000      21.47950000        0
C       21.21240000       5.15581000       1.03915000        0
C       23.74320000       1.73503000      21.76320000        0
C       23.13300000       6.06567000       1.53163000        0
H        9.38207000      23.57430000      16.21420000        0
C       19.57420000      16.03020000       1.52749000        0
C       20.83310000      15.84150000       2.35500000        0
C       17.20530000      18.03620000       0.56194600        0
C       20.12440000      16.84260000       0.40017600        1
C       25.71310000      22.78660000      21.12020000        1
C       27.05770000       8.86120000       2.50824000        1
C       23.16290000      21.12750000       3.42669000        1
C       24.33310000      23.43390000      21.39770000        1
H       22.66550000       7.99066000      12.30720000        0
C       19.83290000       0.80209000       6.68651000        1
C       19.19230000       2.02924000       7.34210000        1
C       19.15070000       1.18424000       9.66696000        1
C       18.95840000       2.30091000       8.69000000        1
C       23.09990000      23.18060000      12.85590000        1
C       22.37750000      23.43820000      14.18160000        1
C       29.86350000      20.70560000      11.91070000        1
C       22.93710000      21.94140000      12.34060000        1
C       19.40990000      23.66470000      17.44820000        1
C       18.65220000       0.72787000      17.37250000        1
C       23.58350000       8.23094000       2.92912000        0
C       18.11920000       6.58239000       1.10732000        1
C       19.80970000       0.19491700      20.92560000        0
C       20.76360000       7.41407000      19.93680000        0
C       20.95670000      22.18250000      21.80930000        0
C       20.10610000      23.09930000      20.97870000        0
Cl      21.24380000      13.32130000      15.97970000        0
C       17.42390000      17.97220000       1.92341000        0
C       17.87990000      18.71280000       2.98368000        0
C       18.20110000      19.75740000       3.43251000        0
C       19.12180000      20.78260000       3.92444000        0
C       27.34070000       9.92365000       4.84942000        1
C       27.43700000      11.27920000       4.15226000        1
C       27.34250000       7.77404000       1.58103000        1
C       27.29800000       8.69542000       3.96709000        1
C       18.62740000       3.69015000       8.81081000        0
C       18.08200000       4.17254000       7.55365000        0
C       18.79840000       3.03687000       6.61983000        1
C       19.98370000       4.46659000       3.38939000        0
Cl      17.91450000       4.34403000      12.51710000        0
C       20.84510000       2.72624000      14.98550000        1
C       20.25150000       4.00617000      14.92980000        1
C       21.81130000       0.53743700      14.65590000        1
C       21.82620000       1.89034000      14.17420000        0
C       11.54160000       6.27001000       4.40770000        0
C       13.05330000       8.10166000       4.13855000        0
C       15.36090000       3.72415000      21.63850000        1
C       15.90560000       1.72712000      20.68300000        1
C       21.43220000       5.47846000      13.13180000        1
C       26.34790000       4.83689000      14.51130000        1
C       19.78830000       6.24202000      14.86790000        1
C       20.43430000       5.12976000      14.40080000        1
Cl      19.09280000      18.75620000      12.89680000        0
H       27.19670000       7.95558000       0.67629000        0
C       20.33190000      21.73910000       3.46185000        0
C       17.11510000      21.99260000       5.84909000        1
C       22.45600000      20.61280000      20.00200000        0
C       21.29980000      22.33100000       2.60735000        0
C       27.46810000      10.36230000       0.44772700        1
C       23.32340000      10.81070000       2.98205000        0
C       27.40240000      11.24180000       2.80854000        1
C       27.35410000      10.11140000       1.98130000        1
C       25.33170000       3.17742000       6.30976000        1
C       23.81940000       9.69023000       3.14318000        0
C       17.96410000      14.20340000       9.37796000        1
C       20.63860000       9.74934000       9.34875000        1
C       19.36060000       7.68071000      14.00360000        1
C       20.21750000       9.34819000      12.73580000        0
C       19.20550000       4.21413000      15.80500000        1
C       18.95160000       5.55092000      15.77730000        1
C       16.16330000       5.56833000      20.25400000        0
C       20.63150000       2.84520000       3.47352000        1
C       25.69540000       2.17017000       5.44984000        1
C       19.28690000       3.89531000      21.74090000        0
C       27.52650000       8.66925000      17.95970000        1
C       26.35910000       9.07013000      17.12090000        1
C       25.83750000       6.14081000      14.83230000        1
C       27.53160000       6.49743000      16.74680000        1
Cl      19.13190000      11.73220000      21.09590000        0
C       19.07650000      22.09270000       3.59399000        0
C       16.95300000      22.56380000       4.61509000        1
C       21.32680000       5.20725000      21.98690000        0
C       19.22300000       6.60547000       2.14171000        0
C       23.42430000       7.12117000       2.38598000        0
C       25.77480000       4.72651000       6.11033000        0
C       26.91860000       6.42550000       2.21990000        1
C       26.85390000       5.54668000       1.00381000        0
C       21.15280000       8.92988000      10.46870000        1
C       20.65650000       9.71383000      11.47750000        0
C       19.94400000      11.02360000      11.26850000        0
C       19.98160000      10.88640000       9.79667000        0
C       19.14500000      12.74380000      13.07400000        0
C       19.15180000      13.87260000      13.37890000        0
C       19.56440000      10.29430000      13.61210000        0
C       19.41560000      11.41530000      12.65540000        0
C       21.77000000       5.22515000      20.70020000        0
C       19.79980000       8.30681000      19.71680000        0
C       19.36720000       1.35896000      21.09000000        0
C       18.90010000       8.92974000      20.30610000        0
C       25.52280000      12.78390000      17.32500000        1
C       25.59220000      14.11130000      17.70830000        1
C       25.77620000      10.42230000      17.30830000        1
C       26.29730000      11.61090000      17.92620000        1
C       21.44660000       6.33535000      19.99230000        0
C       14.58410000       6.67856000      20.36780000        1
C       16.47980000      17.28860000      19.57910000        0
C       22.74510000      17.69700000       2.87382000        1
C       22.43110000      16.96230000       5.49742000        1
C       23.38410000      17.51260000       4.27435000        0
C       27.02960000       5.39229000       5.83173000        0
C       20.53250000       7.81606000      13.11790000        1
Cl      15.35420000      23.72300000       9.51445000        0
H       19.83660000       5.84526000      21.67820000        0
C       19.49010000      12.13610000       8.97929000        0
C       16.65410000      13.24050000       6.90007000        1
C       16.82890000      14.80950000       8.82613000        1
C       17.95920000      16.42650000      10.01790000        1
C       22.44040000      13.16970000      12.11350000        0
C       22.57400000      14.62920000      12.30320000        1
C       18.11330000      15.90750000      14.19930000        0
C       19.19300000      15.10560000      13.74980000        0
C       25.74940000       8.26700000      16.32000000        1
C       24.41070000       8.34523000      14.50030000        1
C       24.66820000       9.03012000      15.53670000        1
C       24.94620000      10.48210000      15.96350000        1
C       27.21690000      11.34910000      20.25940000        1
C       27.72230000      15.94370000      19.97350000        1
C       27.77010000      10.07560000      20.19500000        1
C       28.26280000       9.98526000      21.78510000        1
C       29.04120000      15.96000000       2.45567000        1
C       29.33280000      16.93570000       1.51002000        1
C       25.77520000      15.49090000       4.28787000        0
C       29.62530000      18.45470000       6.86095000        1
H       24.94230000       7.61581000       5.99126000        0
C       29.95850000      19.27110000       1.98960000        1
C        0.12072800      17.78630000       3.92963000        0
C       31.47240000      17.74420000       2.40757000        0
C       30.24560000      17.94750000       1.83070000        0
C       24.92120000      13.70600000       7.40049000        1
C       24.85470000      12.30780000       7.49132000        0
C       24.99980000      10.93730000       6.58936000        0
C       24.39320000      10.92740000      10.04580000        1
C       21.53910000       9.64740000       8.37761000        1
C       24.52120000      13.29390000       9.80393000        1
C       27.15700000       6.45013000       3.70177000        1
C       23.98940000      10.10380000       6.67785000        1
C       24.28690000      11.53110000      15.63600000        1
C       24.63690000      12.59760000      16.19220000        1
C       23.84900000      14.18530000      16.12240000        1
C       24.95100000      14.92130000      16.68790000        1
Cl      18.34120000      15.12590000       1.91201000        0
C       25.72280000      17.58890000      17.61160000        1
C       26.39450000      17.13020000      18.77540000        1
C       27.80260000      17.23710000      20.57600000        1
C       26.95510000      15.70150000      18.79990000        1
C       26.19890000      16.47430000       5.53612000        0
C       26.91360000      18.05870000       5.49868000        0
C       27.62300000      17.86520000       4.37942000        0
C       29.60490000      21.63000000       2.10484000        1
C       31.55180000      20.89850000       3.41402000        0
C       31.79420000      22.38770000       3.56991000        1
C        0.13149600      20.16260000       4.48819000        1
C       30.41510000      20.61870000       2.45551000        1
Cl      25.46680000       2.01673000       2.79939000        0
C       24.25010000      12.12900000       9.09931000        1
C       24.93590000      14.21770000       8.88729000        1
C       25.17500000      15.54460000       8.91473000        1
C       24.74180000      16.42700000       9.88005000        0
C       29.53800000      21.54720000      10.69970000        1
C       31.14190000      16.89630000      13.63210000        1
C       24.46640000      13.45100000      11.14500000        1
C       23.51680000      12.51630000      11.65460000        1
C       24.86780000      16.27700000      16.96370000        1
C       23.59480000      16.98270000      16.99980000        1
C       22.76550000      19.45190000      12.39230000        1
C       22.48830000      20.77490000      12.95740000        1
H       26.71110000       1.67683000      20.71580000        0
C       25.21080000      19.72250000      19.00970000        1
C       24.56670000      20.79840000      20.11570000        1
C       26.95240000      18.19220000      19.71490000        1
C       25.88680000      21.56450000      20.44460000        1
C       28.86820000      21.97440000       0.97296000        1
C       28.93820000      23.31860000       0.17480500        1
C       29.82190000       0.05607570       0.73180600        1
C       29.69670000       1.29424000       0.07051070        1
H       21.86990000      11.89760000       2.07314000        0
C       32.50000000       0.68975000       3.57904000        1
C       31.37950000       0.86983100       2.70455000        1
C       30.30540000      22.80600000       2.66560000        1
C       30.33880000      24.06620000       2.04637000        1
C       25.48730000      17.58380000       9.60943000        0
C       25.32710000      19.06230000       9.82393000        1
C       24.48220000      19.73160000      10.65920000        1
C       23.96150000      21.16340000      10.18060000        1
C       30.58240000      22.65520000      13.50530000        1
C       26.88990000       0.39052000      13.99460000        1
C       29.80620000      20.33920000      14.28540000        1
C        0.99790500      22.38370000      15.50990000        1
C       21.85740000      20.98900000      14.25230000        1
C       21.84360000      22.36760000      14.77570000        1
C       27.95460000      20.21330000      21.63410000        0
C       25.00110000       3.76632000       0.25084700        0
C       23.56020000      21.21290000      20.97790000        1
C       22.58010000      21.40450000       2.04552000        1
C       26.45800000      19.42580000      19.63030000        1
C       27.18000000      20.54590000      20.55200000        0
C       31.29880000       4.76904000       2.16386000        1
C       30.95390000       5.71602000       3.12154000        1
C       30.61910000       2.91222000       5.57921000        1
C       30.66360000       3.35353000       7.01940000        1
H       31.09000000      18.02000000      20.08390000        0
C       27.26510000       7.01451000       6.03336000        0
C       30.63920000       6.78999000       8.79778000        1
C       28.83550000       1.76920000       4.50519000        0
C       31.07530000       5.16020000       4.56505000        1
H       30.78450000      18.66280000      21.95810000        0
C       24.34440000      21.69940000       8.95589000        1
C       24.20540000      23.04160000       8.53285000        1
C       23.80240000      24.22150000       9.48243000        1
C       23.58950000       1.36596000       9.03319000        1
C       26.78650000       1.90302000      14.02090000        1
C       27.41650000       2.74628000      15.24220000        1
C       23.29840000       0.10081400      12.16650000        0
C       27.68870000       6.05805000       9.21269000        0
C       25.83030000       4.55976000       0.67622500        0
C       23.94850000       3.04781000       0.06364050        0
C       28.33400000      24.05670000      17.24850000        1
C       29.23110000       0.47537600      18.17910000        1
C       28.64680000       1.20563000      21.55670000        1
C       30.50460000       2.60214000       0.83267100        1
C       26.76720000      23.81950000      21.40310000        0
C       28.08340000      24.03040000      21.68310000        0
Cl       6.25641000      21.90760000      15.75020000        0
C       30.02940000      12.10530000       8.50036000        0
C       32.14010000       9.51521000       5.53070000        1
C       31.19570000       8.14881000       5.30369000        1
C       30.60240000       8.08065000       4.05348000        1
C       28.33630000      11.99160000       5.08789000        1
C       27.98280000      12.44590000       2.40159000        1
C       31.02550000       7.64809000       7.49391000        1
C       31.00190000       7.08362000       6.15276000        1
C       24.80440000       2.82008000       7.55226000        1
C       23.42180000       5.38380000       9.95690000        1
C       22.67450000       3.48518000      12.14510000        0
C       24.36920000       3.95123000       8.18132000        1
C       22.22740000       6.90282000      11.44760000        1
C       23.33450000       6.31944000       8.87092000        1
C       27.14380000       4.18699000      15.36460000        1
C       21.30780000       6.73478000      12.61970000        1
C       28.79940000       1.95104000      18.30750000        1
C       28.77990000       3.00040000      19.29030000        1
C       28.70110000       4.29321000      18.79180000        1
C       28.87300000       5.48096000      19.49890000        1
C       30.54730000       5.12766000       0.92470000        1
C       30.30420000       6.45492000       0.64435500        1
C       30.02500000       4.02245000       0.41011100        1
C       29.06130000       4.16895000      21.64240000        1
C       30.41820000       7.09074000       2.98274000        1
C       30.18780000       7.48754000       1.47852000        1
C       27.15950000      12.02330000       0.21731900        1
C       22.00670000      14.03080000       4.22967000        0
H       30.55460000      12.85240000       3.27216000        0
C       28.76820000      13.23240000       4.54956000        1
C       29.57630000      13.99290000       5.20966000        1
C       27.74810000      13.07460000       1.05508000        1
C       28.67520000      13.65280000       3.22811000        1
C       22.63250000       4.86859000      12.37910000        0
C       23.42480000       2.47776000      11.31630000        0
C       23.07160000       1.53560000      12.30260000        0
C       22.20140000       2.42123000      12.99120000        0
H       31.66760000      18.96220000      18.51880000        0
C       22.78770000       8.42850000       8.22499000        1
C       23.56850000       8.79147000       7.03679000        1
C       23.97620000       6.43774000       7.45850000        1
C       22.73510000       7.61851000       9.17695000        1
C       29.09050000       5.49458000      20.97890000        1
C       23.63170000       9.95499000      12.38520000        0
C       23.62580000       8.87141000      13.14550000        0
C       26.55330000       7.01410000      15.86420000        1
C       30.11660000       8.94163000       0.91179200        1
C       29.29970000       8.99368000      22.21210000        1
C       29.70780000       6.52772000      21.70650000        1
C       29.37900000       8.02264000      21.19900000        1
C       27.83210000      14.87270000      21.04450000        1
C       28.36200000      15.41740000      22.34150000        1
C       28.17970000      14.33970000       0.93905800        1
C       28.50350000      14.63040000       2.24325000        1
H        3.39053000      15.84800000       1.94637000        0
C       29.48770000      15.54280000       5.11090000        1
C       29.35910000      16.21910000       3.89456000        0
C       29.87770000      13.51930000       6.48604000        1
C        0.88967500      15.75840000       7.89337000        0
H       17.11260000      15.13980000      21.00710000        0
H       24.75650000      22.74410000       1.50960000        0
C       25.59640000      14.34820000       6.26515000        1
C       25.61290000      14.26520000       4.89429000        0
C       25.86730000      15.68510000       6.50613000        1
C       22.01630000      15.73100000       6.08565000        1
Cl       8.54820000      22.61950000       4.55730000        0
Cl      25.50680000      15.88000000       2.66949000        0
H       25.93920000      10.74390000       5.95483000        0
C       27.64240000       5.12384000       4.32098000        0
C       27.15600000       7.41393000       4.75625000        1
C       24.19470000       7.66149000       6.71731000        1
C       26.88000000       1.94909000       3.98225000        0
C       28.49010000      19.03880000      22.12630000        0
C       29.01440000      19.66800000       0.88240500        1
C        3.07663000      22.11240000      20.67560000        0
C        1.09978000      20.63970000      20.56420000        0
C        3.00600000      22.94930000       3.57272000        1
C        1.79269000      23.19770000       3.25735000        1
C        0.79257900       4.88752000       3.31874000        0
C        0.91769800       2.82498000       3.79454000        1
C       32.44020000      18.31900000       3.12398000        0
C       29.62710000      17.77070000       5.80900000        1
C       30.09870000      14.45220000       7.66951000        1
C        0.07842250      15.30610000       6.93251000        0
C       28.11220000      23.00880000       5.46443000        0
C       27.68930000       0.84430000       3.95822000        0
C       29.16920000      21.31790000       6.67471000        1
C       27.97210000      21.61920000       5.78084000        0
C       28.19150000       9.99403000       6.41879000        0
C       26.76230000      20.64870000       5.74316000        1
C       26.77310000      19.16580000       6.26398000        1
C       22.24890000      14.44790000       5.66417000        0
C       30.30060000      17.83020000      11.56670000        1
C       30.24780000      19.17040000      13.46710000        1
C        0.13050800      16.18660000      18.89600000        0
C        0.77404200      17.41870000      19.18720000        1
C       32.85210000      18.95510000      20.91080000        0
C       31.94330000      21.26180000      20.65470000        1
C        2.72740000      19.47220000      19.20890000        1
C       30.31760000      19.97350000      16.78880000        1
C       32.92660000      23.38630000       3.54411000        1
C        0.35785200       1.67272000       3.37306000        1
C        0.63670400      22.72800000       3.76972000        1
C        0.81256400      21.29580000       4.87620000        1
H       15.27320000      22.25010000      11.88060000        0
C       28.84340000      22.95260000      16.52110000        1
C       29.28280000      21.62550000      17.31130000        1
C       29.70940000      21.52690000      18.76440000        1
C       30.10120000      20.27360000      19.14300000        1
C       30.61480000       1.74364000      10.29050000        0
C       29.75150000       0.88826100       6.51920000        1
C       29.84870000       1.86757000       5.41647000        1
C       24.87980000      23.44820000       7.41589000        1
C       26.05130000      16.05010000       7.82849000        1
C       26.09900000      17.34280000       8.35387000        0
C       26.29320000      18.78080000       7.77585000        1
C       25.67400000      19.68090000       8.76712000        1
C       31.93220000      18.91850000      15.09810000        1
C       30.97560000      18.16530000      14.40820000        1
C       31.17170000      20.23690000      15.40510000        1
C       30.17400000      19.29990000      12.15790000        1
C       28.92710000      20.56530000      16.60670000        1
C       28.38810000      20.56640000      15.05800000        1
C       27.28740000      21.44830000      14.65790000        1
C       27.48990000      22.61760000      15.44960000        1
C        3.64737000      22.86800000      21.67010000        1
C       31.69480000      22.30680000      19.90000000        1
C        2.09740000      23.63160000       0.87657200        1
C        3.48038000      23.32580000       0.62995000        1
C       31.33550000      18.78640000      20.79800000        0
C       33.02150000      20.47800000      21.11380000        0
C       28.08810000       9.15718000       7.47817000        0
C       32.06620000       9.94006000       6.97871000        1
Cl      32.48930000      17.32270000       9.56515000        0
C       28.09160000       2.84585000       4.36327000        0
C       31.10840000       2.27741000       2.29273000        1
C       29.11240000      23.72950000       6.28149000        0
C       29.55600000      22.70970000       7.33875000        1
C       25.22770000      20.83600000       8.10578000        1
C       25.91940000      21.27000000       6.85470000        1
C       25.55480000      22.70630000       6.54255000        1
C       25.95970000      23.68640000       5.35421000        0
C        0.28049600      21.07550000      15.42340000        1
C        0.93979300      19.83920000      15.18870000        1
C       30.62050000      15.51840000      12.00460000        1
C       30.16940000      14.96600000      10.75940000        1
C       27.23000000      24.03250000      15.36290000        1
C       27.36530000       0.59962500      16.39900000        1
C       27.63450000       1.93686000      16.26480000        1
C       28.21690000       2.56988000      17.25740000        1
C       33.34000000       1.56836000      21.14940000        1
C        0.92344100       1.06168000      22.14800000        1
C       32.77890000      23.45110000      20.50890000        1
C       32.61460000       0.69575700      20.37070000        1
C       31.10140000       9.02100000       7.76254000        1
C        0.80011700       8.45616000      10.29070000        0
C       29.74300000      15.80270000       7.54069000        1
C       33.29210000      13.95820000       4.82875000        0
C        6.80495000       7.55938000       3.17040000        1
C        6.64955000       8.01314000       1.03985000        0
C       31.31840000       3.49069000       2.92834000        1
C       31.22200000       3.71238000       4.46647000        1
C       25.49430000       0.77024200       5.68760000        1
C       24.65190000       0.49385100       6.84849000        1
C       23.97330000       1.69590000       7.63436000        1
C       24.59100000       5.17765000       7.19719000        1
C        2.24104000      22.47300000      14.92870000        1
C        3.28384000      23.37950000      15.15470000        1
C        2.11483000      20.03290000      14.40540000        1
C        2.94210000      21.24900000      14.34570000        1
C       28.16390000       4.21231000      17.51140000        1
C       27.68550000       5.06450000      16.51410000        1
C       31.73140000       8.56568000      16.45110000        1
C       27.78720000       7.26845000      17.93450000        1
C       26.32770000       2.49903000      12.80040000        1
C       25.77960000       4.16537000      13.15760000        1
C        1.06819000      23.81680000      22.07180000        1
C        0.76469900      23.07160000      20.82210000        1
C       32.77480000      13.03240000       4.22534000        0
C       33.00900000      14.67600000       5.95663000        0
C        2.11172000      15.64170000       8.56008000        0
C       31.80880000      10.34700000       4.46677000        1
H       29.88110000      11.71250000       1.03615000        0
C        5.85530000       8.80831000       5.22278000        1
C        6.97015000       7.80084000       4.53904000        1
C        6.45924000       8.46198000       2.28512000        1
C        5.64468000       9.80593000       4.13942000        1
C       26.47780000       3.45165000      11.93860000        0
C       27.13800000       4.20056000      11.06590000        0
C       27.00630000       5.08751000      10.11330000        0
C       27.58020000       7.95729000       7.19708000        0
C        0.59163400      23.74000000      15.69610000        1
C       30.58680000      23.30760000      12.15440000        1
C        1.52136000       0.44168900      15.92130000        1
C        2.83048000       0.41985600      15.46180000        1
Cl       8.85332000       6.34366000      10.19000000        0
C       28.51030000       6.78176000      19.22410000        1
C       28.85980000       8.05965000      19.88250000        1
C       27.80220000       9.04508000      19.25570000        1
C        3.15407000      12.83680000      19.60660000        1
C        3.30266000      15.70010000       3.06524000        1
C        1.95777000      15.87200000       3.69624000        1
C       23.75700000      10.84850000      11.44540000        1
C       21.91530000       7.79388000      10.28350000        1
H       17.88000000       4.65265000       3.80782000        0
C       32.23790000      11.67550000       3.99872000        1
C       30.97320000      12.00040000       2.97599000        1
C       30.62280000      11.27110000       1.91875000        1
C       30.43030000       9.82111000       1.87193000        1
Cl      10.19690000       9.85511000       3.52518000        0
C       30.32370000      13.66660000      10.42670000        1
C        0.99354200      15.82010000      10.35500000        1
C        7.47117000       6.47186000       2.61484000        1
C       30.84470000      13.00950000      11.44490000        1
C       27.67520000       6.84598000       8.19577000        0
C       28.11400000       4.05771000       3.73868000        0
C       29.78160000       7.30033000       9.91053000        1
C       29.36320000       8.60081000       9.79225000        1
C       31.92140000      10.46200000      15.14510000        1
C        0.22275300      12.08900000      15.54180000        1
C       31.26540000       0.38979500      12.53220000        1
C       30.05730000      21.23700000      13.28230000        1
C       27.28990000      12.36670000      21.30340000        1
C       27.23670000      13.66000000      20.84770000        1
C       28.80070000      16.74870000       0.26685000        1
C       28.26630000      17.79490000      21.82220000        1
C        1.02881000       3.13155000       0.98557600        1
C       31.01600000      20.11630000      20.13020000        1
C        1.61340000      19.30310000      20.20670000        1
C        0.48682100      18.39360000      20.24550000        1
C       30.90920000       9.41934000       3.26292000        1
C       30.12520000      13.31420000       9.04277000        0
C        2.00472000      18.70850000       5.64988000        1
C       29.75230000      16.30690000       6.16211000        1
C        2.65079000      14.03130000      13.34000000        1
C       29.24840000      20.17270000       7.31077000        1
C        1.06384000      16.09680000      11.75360000        1
C        2.15766000      15.81440000       9.80878000        1
C       29.56610000       9.30717000       8.57119000        1
C       29.93720000      10.85600000       9.00196000        0
C       29.79320000      12.09460000       6.88623000        1
C       28.97210000      11.25330000       6.11515000        1
C        0.32250900      14.62400000      16.70370000        1
C        0.75418000      15.30860000      17.83300000        1
C        0.97839900       9.32377000      13.86530000        0
C       32.06770000      14.76320000      16.75060000        0
H       21.37090000      12.85960000      12.39100000        0
C        4.21964000      16.33670000      13.98420000        1
C        3.46825000      15.92300000      10.58170000        1
C        0.90936400      13.23810000      14.89270000        1
C        3.53295000      11.55500000      15.30650000        1
Cl      25.47660000      21.71410000       1.76176000        0
C       10.45800000      18.32930000      15.43350000        0
C        3.48154000      10.47230000       0.95502500        1
C        6.19882000       0.16764600      17.99070000        0
C        7.94736000      19.19470000      13.97800000        0
C        0.65169400       6.86788000       1.97111000        0
C        1.44353000       8.88751000       0.09276170        1
C        4.41369000      18.33420000      10.64440000        1
C        5.73561000      15.40740000       9.55223000        0
Cl      25.46570000       9.55091000       9.79229000        0
C        1.76697000      16.94560000      12.35010000        1
C        3.51703000      19.08400000      12.64950000        1
C        4.38235000      16.09780000       9.42971000        1
C        3.13304000      16.67490000      11.73290000        1
C       29.71560000      21.42390000       9.34978000        1
C       29.86180000      22.74470000       8.53066000        1
C       30.26260000      23.54380000       9.54620000        0
C       29.94810000      23.00080000      10.95370000        1
C        0.26155700      17.50630000      14.15630000        1
C        1.65254000      17.80670000      13.32970000        1
C       31.41320000      14.58320000      13.02710000        1
C       32.61140000      16.65880000      13.89650000        1
C        1.07316000      14.64450000      15.60190000        1
C        2.12772000      15.44760000      15.21970000        1
C        2.60707000      16.31450000      16.31220000        1
C        1.87219000      16.24820000      17.55140000        1
Cl      32.00820000      15.61040000      19.51420000        0
C       27.17300000      23.95960000       4.62057000        0
C       28.70810000       2.78486000      20.89620000        1
C        7.70350000      16.93610000      14.39070000        1
C       28.95440000      17.65800000       4.39850000        0
C        5.69628000      13.99290000       9.72693000        0
C        4.08254000      14.86100000       6.97198000        1
C        3.68362000      15.98430000       7.91970000        1
C        7.12719000      16.08320000      10.02190000        0
C        0.58989100      18.69010000       4.83447000        1
C       32.37320000      19.95770000       3.68307000        0
C        4.25903000      16.64710000      12.64010000        0
C       10.59200000      19.05310000      13.04080000        0
C       31.27030000       1.54472000      11.60330000        0
C       30.43160000       0.56539600       9.15039000        0
C       29.99510000       1.34541000       7.94567000        1
C       30.28760000       2.59783000       8.25083000        1
C       31.24040000       4.66450000       7.12266000        1
C       30.96980000       5.31510000       8.52006000        1
C        5.06474000      20.19800000      18.20890000        1
C       31.23860000       5.70435000       5.78081000        1
C        1.97396000      17.23890000      18.51090000        1
C        2.82186000      18.38000000      18.37220000        1
C       30.93890000      19.60720000      18.01560000        1
C        6.44491000      20.49930000      16.59740000        0
C       24.83130000       6.94161000      14.23370000        1
C        7.70747000       5.52354000       4.88218000        1
C        0.08118940       5.42377000      22.11750000        1
C       31.87800000       7.71457000      17.58570000        1
C        3.79043000      18.31200000       8.12041000        1
C        4.23123000      19.67440000       7.94503000        1
C        3.36642000      21.88870000       4.44378000        1
C        2.70709000      19.97180000       5.75098000        1
C        4.25492000      21.32310000      13.50160000        1
C        5.01511000      22.54050000      13.53230000        1
C        5.06875000      20.60750000      11.43920000        1
C        4.53543000      20.29630000      12.68070000        1
C       31.08800000       4.36586000      12.19870000        1
C       30.80970000       4.98502000      13.37730000        1
C       30.92470000       5.29749000      11.08210000        1
C       30.52130000       6.59436000      11.12390000        1
C       31.23610000       2.82961000      12.43750000        1
C       31.90440000       2.14833000      17.20740000        1
C       30.93120000       4.59877000       9.73329000        1
C       30.51130000       2.97877000       9.59646000        1
C       31.93930000      23.87630000      14.61890000        1
C       32.69980000       0.22013500      15.63720000        0
C       31.09660000       3.29101000      16.54190000        1
C       32.62410000       3.87016000      20.30260000        1
C        6.49813000       6.79247000       6.62311000        1
C        5.85720000       7.85828000       7.23724000        1
C        7.19969000       4.31990000       5.46252000        1
C        7.41553000       6.79657000       5.53396000        1
C        2.20110000      21.07090000       5.17153000        1
C       31.10960000       4.48808000      18.70670000        1
C       31.18900000       5.81368000      19.04720000        1
C       32.95720000      10.39090000      17.63840000        1
C        3.70097000       2.67865000      12.95330000        1
C        3.08522000       1.64260000      15.10230000        1
C        4.81030000       0.80138800      13.92130000        1
C        3.94215000       2.04130000      14.17060000        1
C       30.33460000       7.42290000      12.25670000        1
C       30.41020000       8.87370000      12.07130000        1
C       29.89750000       9.37753000      10.85320000        1
C       30.18380000      10.71150000      10.43460000        1
C       31.67670000       2.30621000      14.02030000        1
C       30.94570000       3.26717000      15.05960000        1
C       32.95900000       1.74093000      16.08330000        0
C       31.55470000       0.82336300      13.82110000        1
C       33.22120000       2.99444000      21.30240000        1
C       30.55210000       4.28629000      17.31390000        1
C       30.35090000       5.71559000      16.83840000        1
C       31.07520000       6.56544000      17.77820000        1
C        5.66849000      11.22870000       4.56166000        1
C        5.88566000      12.38590000       3.85811000        1
C        5.63373000       9.09315000       6.48451000        1
C        5.59120000      10.42330000       6.97491000        1
C        0.33372600      11.33630000      16.86470000        1
C        1.91019000      11.80260000      17.66110000        1
C        2.98027000      11.95850000      16.77580000        1
C        3.95540000      12.68250000      17.36510000        1
C        2.13137000       5.85092000      13.62360000        1
C        1.93248000       6.33089000      12.24230000        1
C        1.87318000       4.12716000      15.10670000        1
C        2.68065000       4.70475000      13.88780000        1
C       31.05540000      11.50010000      11.39890000        1
C       31.73510000      13.38430000      12.56560000        1
C       30.81070000      16.77730000      12.33140000        1
C        0.07503340      18.65060000      15.21920000        1
C       31.02910000       8.29854000      15.23500000        0
C       30.67850000       6.97498000      14.81370000        0
C       30.71240000       4.51158000      14.70440000        1
C       30.34660000       5.86722000      15.45780000        1
C       32.71940000       5.23629000      20.95310000        1
C       32.25110000       6.03568000      19.91070000        1
C       32.71290000       7.29569000      19.95690000        1
C       32.58170000       8.15773000      18.90880000        1
C        4.62054000       9.85079000       1.48324000        1
C        6.83143000      11.11790000       0.47926500        1
C        5.64584000      10.90170000       1.54426000        1
C        0.75858500       3.50671000       2.41620000        1
C        6.44419000      14.60520000      13.98940000        1
C        4.40574000      14.37050000      21.53570000        1
C        3.41717000      13.27000000      21.06040000        1
C        2.30025000      10.05050000       0.25172500        1
C        0.48456800       9.68153000      12.54450000        0
C        0.75143100      11.11120000      12.16400000        0
C        1.55727000       7.69246000      12.47630000        0
C        0.59490300       8.60220000      11.72720000        0
C        0.18316200      16.13050000       9.20913000        0
C       29.59830000      17.91290000       8.16871000        1
C       29.33900000      16.58840000       8.53295000        1
C       29.47680000      16.37670000       9.85628000        1
C       30.65430000       9.79203000      13.05320000        1
C       31.06800000      11.28730000      12.78050000        1
C       30.77900000       6.71298000      13.50500000        1
C       30.93620000       9.48203000      14.43680000        1
C        0.05073920       9.52497000      18.71240000        1
C        3.88283000      18.18580000      17.32650000        1
C        3.55663000      17.32500000      16.20930000        1
C        4.67569000      17.32230000      14.90450000        1
C        2.84891000      12.23640000      22.00860000        1
C        6.95160000      18.10640000      14.32510000        0
C        5.47011000       9.53858000       2.49013000        1
C        7.28909000      15.56880000       0.25298600        1
C        4.94195000      14.17560000       0.40254900        1
C        0.80189600       5.99765000       2.91793000        0
C        0.49067400       6.80184000      21.97890000        1
C        1.10436000       7.51594000       0.53922300        0
C        4.29831000      17.75950000       9.41895000        1
C        4.07812000      17.96810000      11.91180000        1
C        1.66044000      11.67550000      13.05530000        0
C        1.83039000      12.99610000      13.73190000        1
C       29.63320000      17.77750000      10.30060000        1
C       29.49220000      18.84080000       9.22071000        0
C       31.61010000      14.77190000      15.61610000        0
C       29.53780000      20.05510000       8.62713000        1
C        2.07319000      10.53170000      13.80960000        0
C       31.81350000      15.61570000      14.22930000        0
C       32.11150000      12.21380000      13.36130000        1
C       32.47210000      11.70030000      14.77550000        1
C        5.70401000      15.37040000      17.75470000        1
C        6.51454000      14.75920000      15.31410000        1
C        8.57887000      16.24320000      13.28230000        1
C        6.76663000      16.19010000      17.97490000        1
C        9.71772000       3.26012000       1.27298000        0
C        8.59975000      10.20540000      21.81060000        1
C       11.69200000       1.28337000       0.72174500        1
C       10.45430000       1.83268000       1.17225000        0
H       25.19200000      13.46770000       4.08990000        0
C        0.87142300      16.64240000       3.79748000        0
C        5.63301000      12.30840000       2.18937000        1
C        2.69050000      17.43200000       5.98345000        1
C        5.06796000      22.35810000       7.69728000        1
C       12.09960000      13.14030000       7.13334000        1
C       10.04330000      14.90100000       6.33927000        0
C        5.24672000      13.29600000       4.79288000        1
C        4.55293000      14.54700000       4.64397000        1
C       11.29650000      20.05700000       9.24946000        1
C       10.57110000      18.67030000       8.85951000        1
C        9.18384000      18.47200000       8.45668000        0
C        4.90219000      19.59890000      10.41180000        1
Cl       1.05869000      11.66930000      10.58030000        0
C        5.81424000      18.18650000      15.31680000        1
C        2.59335000      19.00570000      13.50820000        1
C        5.11623000      13.22400000      16.58810000        1
C        9.14357000      19.04700000      13.47030000        0
C        7.77926000      16.61100000      16.77000000        1
C        9.13554000      17.33230000      17.38640000        1
C        9.19437000      17.72580000      18.75810000        1
C        8.17491000      17.34060000      19.74090000        1
C        9.56619000       7.75162000      21.43830000        1
C       10.21320000       6.63908000      21.84010000        1
C        9.55980000       9.07969000      21.80160000        1
C       10.33430000      23.10210000       2.69263000        0
C        3.60699000      20.54180000       6.81108000        1
C        6.14056000      24.06090000      22.33350000        1
C        4.40181000      23.99560000       1.55523000        1
C        4.26191000      23.65830000       2.92560000        0
C        9.99765000      13.48740000       5.67772000        0
C        3.04608000       3.83464000      12.87020000        1
C       12.59290000      11.97500000       6.41021000        1
C       11.67810000      11.61980000       5.19043000        0
C       10.62120000      21.31450000       9.51190000        1
C        8.85287000       3.81257000       9.25868000        1
C        4.99956000      20.23880000       9.00808000        1
C       11.08870000      18.18980000      14.34810000        0
C        3.89291000      20.67700000      18.89010000        1
C        1.54927000      22.03220000      20.33070000        0
C        5.66678000      19.25820000      16.01280000        1
C        5.02148000      19.14090000      17.31160000        1
C        6.94393000      16.80770000      19.35880000        1
C        6.24780000      16.25320000      20.53560000        1
C        6.37356000      14.48150000       0.64419600        1
C        9.75789000      17.37710000      21.78650000        1
C        8.27530000      17.55410000      21.08580000        1
C       12.34050000      17.48620000      21.99570000        1
C       15.91210000       9.19163000      16.82930000        1
C       11.19080000      17.70570000      21.37470000        1
Cl      31.96020000      15.64970000       2.31195000        0
C        5.73916000       0.41045200       1.20202000        1
C        5.27036000      22.71320000      19.65840000        0
C        5.03970000      23.48600000      21.02400000        1
C        5.88055000      23.26970000      18.56240000        0
C        6.75855000       1.98314000       4.46202000        1
C        5.86471000       0.64232200       7.71092000        1
C        0.93747600       1.93016000      16.01400000        0
C        2.06809000       2.73383000      15.41260000        0
Cl      17.10870000      20.82040000      22.04340000        0
C        5.30884000      21.77160000       8.94240000        1
C        5.57337000      22.53100000      10.14670000        1
C        5.57955000      21.79230000      11.39540000        1
C        5.65134000      22.72490000      12.26800000        1
C       30.50150000       0.07010840      18.76800000        1
C       31.79310000       3.40550000      19.16210000        1
C        4.10935000      21.73140000      19.48040000        0
C       30.50010000      22.79740000      19.29140000        1
C       10.88230000      12.32450000       1.37750000        0
C       12.65410000      16.61080000       0.74408500        1
C       10.21220000      18.03980000      16.79930000        0
C        7.20178000       1.17172000      16.18420000        0
C       12.43500000      19.08240000      18.16500000        1
C       14.94210000      19.55310000      15.69570000        1
C       13.72060000      18.10000000      20.02230000        1
C       13.62280000      19.53550000      17.55720000        1
C        0.49223100       3.95045000      22.27960000        1
C        0.61715100       4.15395000       4.51395000        0
C        1.06849000       1.67341000       0.94950200        1
C        1.47565000      24.05220000       2.02041000        1
C        5.31011000       3.23549000       8.56571000        1
C        5.99642000       3.13586000       7.27013000        1
C        5.58877000      23.60960000       7.18858000        1
C        5.70279000       1.06444000       9.15660000        1
C        5.44808000      24.08440000      11.70680000        1
C        5.62420000      23.90800000      10.21930000        0
C        7.65502000       4.48160000      11.25060000        1
C        4.57509000       2.61986000      10.79590000        1
C        4.80992000       4.43564000       9.26675000        1
C       31.38170000       0.92809000      19.56310000        1
C       31.44010000       2.09583000      18.42160000        1
C        5.32729000       2.36124000       9.61750000        1
H       24.72560000       4.79050000      12.97310000        0
C        6.60882000       1.09812000      17.38750000        0
C        0.99931300       8.89282000      21.04320000        1
C        0.23754100       7.66948000      20.80700000        1
C        0.80915800       9.82396000      19.94660000        1
Cl      33.03320000      10.88060000       8.20193000        0
Cl       1.34887000       4.33347000       5.94243000        0
C       13.77920000      22.09290000      14.58950000        1
C       13.48900000      21.54290000      15.88900000        1
C       13.99000000      20.39630000      16.41150000        1
C       14.80590000      18.46400000      17.80700000        1
C        0.93383200       1.01429000       2.22016000        1
C        7.26336000       6.65368000       1.35053000        0
C        7.93909000       5.37118000       3.46220000        1
C       32.21010000       9.86185000      16.32380000        1
H       24.20180000       6.73304000      13.39630000        0
C        7.20231000       3.43998000       4.29656000        1
C        7.92583000       3.96895000       3.30556000        1
C        6.24143000       1.87478000       6.81005000        1
C        6.39208000       1.34394000       5.51950000        1
C        9.68253000       4.05837000       7.98957000        0
C        9.35560000       2.45522000       9.75076000        1
C        5.56798000       7.04871000      11.27400000        1
C        5.50260000       5.71202000       8.96061000        1
C        4.20017000       3.90298000      10.49870000        1
C        4.42471000       8.73626000      12.93550000        1
C        6.77470000       5.12178000      12.38500000        1
C        5.99703000       6.32739000      12.32880000        1
C        1.54285000      11.11720000      20.23660000        1
C        2.22715000      11.15530000      21.57220000        1
C        2.18057000      11.95160000      19.08220000        1
C        4.13559000      13.20130000      18.64650000        1
C       14.82540000      17.83510000      19.10840000        1
C        8.65899000       3.15604000       2.07231000        1
C       12.09720000      22.05520000      16.09430000        0
C       15.30530000      18.26260000      16.49930000        0
C        1.87740000       8.08911000      13.79880000        0
C        1.80187000       6.72772000      14.53480000        1
C        1.45615000       6.22429000      15.84700000        1
C        1.10052000       4.97636000      16.11270000        1
C        5.35189000       8.06046000       8.79550000        1
C        5.42972000       7.05122000       9.87417000        1
C        6.44554000       4.33019000       6.82028000        1
C        6.42450000       5.70246000       7.59387000        1
C        3.15378000       4.66286000      11.56300000        1
C        2.24017000       5.64383000      11.11750000        1
C        2.00572000       6.19383000       9.71601000        0
C        1.21647000       7.17619000       9.83869000        0
C        4.79465000      12.25550000      15.21410000        1
C        6.24930000      13.40090000      13.50040000        0
C        3.38102000      10.59240000      14.37420000        1
C        5.61871000      12.18120000      13.97160000        1
C        3.66615000      11.96620000       0.66683600        1
C        5.45314000      14.87480000      20.36330000        1
C        5.18291000      14.69070000      18.92990000        1
C        7.32495000      16.09320000      15.74230000        1
C        6.19110000       0.63492100       2.62406000        1
C        9.20246000       1.05278000       1.52385000        0
C        7.13583000       1.47276000       3.16634000        1
C        8.21178000       1.89339000       2.06710000        1
C        3.60631000      15.00420000       5.61919000        1
C        3.40578000      17.25350000       7.28499000        1
C        7.21312000      17.47310000       9.84517000        0
C        4.45370000      21.49430000       6.74166000        1
C        5.67419000      11.49340000       6.25106000        1
C        5.37250000      12.89020000       6.28657000        1
C        5.02499000       8.51886000      11.68190000        1
C        8.27666000       4.82117000      10.13010000        1
C        5.25686000       9.57881000       9.24611000        1
C        5.29021000      10.66370000       8.44594000        1
C        5.06732000      11.91790000       9.27996000        1
C        5.08788000      13.76280000       7.41220000        1
C        7.45163000      15.27690000      13.09150000        1
C        3.11323000      15.20280000      14.26690000        1
C        7.89226000      15.00920000      10.62210000        0
C        6.87962000      14.80940000      11.90290000        0
C       15.74890000      11.68470000      12.59440000        1
C       15.37080000      12.82850000      13.04500000        0
C        4.51088000      12.79530000       1.47607000        1
C        7.16631000      16.44670000      21.60510000        1
C        7.18705000       8.56951000      22.29590000        1
C       11.06550000      18.63530000      17.82660000        0
C        7.30970000       9.96872000      22.16890000        1
C        8.03246000       7.63396000      21.95870000        1
C       11.26290000       6.39120000      21.03950000        1
C       11.80140000       5.17248000      21.03560000        1
C        5.67314000      14.36210000      16.48790000        1
C        2.62906000      16.00120000       4.95668000        1
C       13.96150000      17.20900000       5.69475000        1
C       13.17800000      18.29630000       4.71501000        1
C       14.62240000      14.86990000       5.81090000        1
C       13.99850000      15.93510000       5.16863000        1
C        5.07952000      12.15790000      10.67460000        1
C        6.25437000      13.55090000      12.14950000        0
C        5.66029000      13.27560000      11.08410000        0
C       10.49990000      15.77980000       7.11575000        0
C       11.63170000      17.39680000       8.57586000        1
C       12.93450000      17.27200000       9.50174000        1
C        5.38522000      13.36070000       8.64679000        0
C        9.42502000      14.74520000      10.56940000        0
Cl      16.24960000       5.38528000       4.79363000        0
C       14.92090000      19.29100000      11.72120000        1
C       14.50580000      20.57580000      11.33920000        1
C       14.38510000      21.61720000      12.26880000        1
C       14.62050000      21.27250000      13.72390000        1
C       15.77930000      18.31640000       0.10218400        0
C       13.83380000      17.03160000       1.23450000        0
C       10.31370000      18.29600000      19.06090000        0
C       11.10880000      18.36660000      20.17280000        1
C        4.47188000      15.14380000       3.39769000        1
C       13.09360000      19.70760000       5.25417000        1
C       12.32050000      20.85720000       5.00569000        1
C       13.12300000      21.95790000       4.37511000        1
C        8.07844000      18.24770000       9.14519000        0
C        7.33043000      23.57730000       0.21020500        0
C        5.18735000      23.30920000       5.82542000        1
C        4.26416000      22.29100000       5.47781000        1
Cl      18.71480000      21.83030000       6.49019000        0
H        9.47366000      21.55020000       8.96704000        0
C       10.63890000      14.71640000      10.02970000        0
C       11.84260000      14.88540000       9.02690000        0
C       12.34110000      13.67610000       8.44762000        1
C       15.55110000       9.95025000       7.29759000        1
H       18.85250000       1.70860000      10.89280000        0
H       11.06340000       1.31242000       8.62943000        0
C       14.40880000      18.24570000      10.90890000        1
C       13.23200000      18.47620000      10.14080000        1
C       12.78970000      16.04340000      10.17570000        1
C       14.67020000      16.93170000      11.48870000        1
H        3.20213000      14.25740000      12.40530000        0
C       15.02990000      19.78270000      14.10260000        1
C       11.43330000      23.98460000      12.23600000        1
C       10.31350000      24.23990000      13.29470000        1
C        9.35290000       1.07854000      12.90580000        1
C       20.91940000      19.35280000      21.94440000        1
C       19.37330000      17.50690000      21.79920000        1
C       12.58640000      18.64170000      19.49310000        1
C       13.26720000      18.23210000       3.32954000        1
C       11.00910000      21.09420000       4.77815000        0
C       10.02740000      22.12930000       3.96734000        0
C       12.90060000      22.76030000       3.14853000        1
C       14.04710000      23.20950000       2.51843000        1
C       16.83320000       7.97697000       7.87272000        1
C       14.48190000      10.59970000       6.46108000        1
C        5.45820000      24.01470000       3.63330000        1
C        5.85954000       0.07502400       4.99818000        1
C       10.95800000      12.78780000       4.91725000        0
C        8.07232000      11.84050000       1.28179000        1
C        7.99840000      13.26730000       1.48774000        1
C        6.72264000      13.68810000       1.70455000        1
C       12.71550000      21.91170000      10.99890000        1
C       13.34110000      22.51260000      11.93660000        1
C       12.71390000      19.82450000       9.86093000        1
C       13.38400000      20.73350000      10.50570000        1
C        9.35743000       1.08788000      11.64680000        1
C        8.76333000       2.31448000      11.07810000        1
C        8.22866000       3.32773000      11.91450000        1
C        8.41316000       1.85261000      13.80830000        1
C       16.29140000      23.51930000      21.41550000        0
C       16.34640000       0.50173700      20.65890000        1
C       17.57590000      21.03660000      20.40800000        1
C       17.09840000      22.53850000      20.41440000        1
C       13.49860000      24.10270000       1.39249000        1
C        9.32724000      23.45200000       1.77075000        0
C        8.50154000      23.43690000       0.62499800        0
C       14.39700000       0.25552800       0.43751400        1
H        3.95024000       8.36730000      15.83980000        0
C       17.96310000       5.96147000       9.05266000        1
C       20.18400000      10.01350000       5.91446000        0
C       16.99320000       6.54132000       6.93068000        1
C       17.75450000       5.61540000       7.68825000        1
C       16.61510000       8.10571000      15.88200000        0
C       17.80690000       7.73099000      12.17560000        0
C       18.08220000       7.06489000      11.11600000        0
C       18.42450000       4.77162000       9.75995000        0
C       11.86210000      23.28050000      15.04700000        1
C       10.53490000      24.01170000      14.58050000        1
C       12.61640000      23.44580000      12.79290000        1
C       12.75930000      23.00980000      14.11480000        1
C        8.06301000       3.17813000      13.26700000        1
C        7.27002000       4.19871000      13.55250000        1
C        6.20900000       4.52083000      14.58780000        1
C        5.80241000       5.96524000      14.59180000        1
C        9.24796000      24.17160000      15.40830000        1
C        8.39038000       1.14443000      15.20240000        1
C       15.34020000       2.17970000      21.71740000        1
C       12.90010000       2.15114000       0.39340400        1
C       12.20210000      23.92040000       1.12375000        1
C       14.26470000       1.64207000      22.33460000        1
C       12.61350000       3.54758000      22.34400000        1
C       13.84300000       4.13982000      21.49350000        1
C       14.35790000       8.39276000       4.87617000        1
C       17.47100000       7.80711000       1.37452000        1
C       19.03500000       7.62470000       3.07532000        1
C       17.88790000       6.00094000      22.27470000        1
C       18.47660000       5.33913000      11.00230000        0
C       17.64370000       7.22677000       9.84405000        1
C       17.29050000       8.27848000       9.12990000        1
C       16.74810000       9.42293000       9.49417000        1
C       16.44720000      14.89910000      15.46460000        1
C       15.23220000      14.08560000      12.68930000        1
C       15.48090000      12.81470000      14.52860000        1
C       16.08280000      13.55410000      15.64060000        1
C        5.26182000       6.62300000      15.80320000        0
C        4.76311000       7.85880000      15.48560000        0
C        4.98552000       7.86360000      13.82980000        1
C        5.71067000       6.78711000      13.56510000        1
Cl       5.11624000       6.16769000      17.63600000        0
C       16.40890000       9.32565000      13.44550000        1
C       16.67850000       8.20092000      14.44130000        0
C       16.81300000       8.99082000      12.26350000        1
C       18.17330000       7.60529000      13.54530000        0
H       17.22170000      24.03580000      11.92290000        0
C       13.21430000       5.16075000      20.64140000        0
C       17.04310000       5.96476000      18.72620000        0
C       13.45380000       6.33312000      19.88490000        1
C       14.93290000       7.86416000      20.86500000        1
C       19.61020000       9.13064000       4.92175000        1
C       18.33890000       9.85679000       4.54224000        1
C       17.80460000       8.30111000       2.65036000        1
C       19.83960000       7.94663000       4.17742000        1
C       16.09860000      10.35930000       8.55065000        1
C       15.44840000      11.55640000       8.95738000        1
C       15.31470000      12.00520000      10.32290000        1
C       14.51930000      13.09730000      10.38030000        0
Cl       1.30986000       4.01585000       8.54388000        0
C       16.77200000      15.45590000      14.05350000        0
C       15.90180000      15.42880000      12.89640000        1
C       14.14250000      14.35100000      11.50440000        1
C       13.98410000      15.75420000      11.18590000        1
C       14.27350000      12.12350000       8.37027000        1
C       13.59470000      12.87830000       9.41943000        1
C       16.62390000       9.81423000      11.13820000        1
C       15.86540000      11.13280000      11.24690000        1
C        9.38965000       5.60967000      22.43810000        1
C        8.09314000       6.21192000       0.20051800        0
C       11.34380000       4.18548000      22.01670000        1
C       10.21270000       4.36124000       0.49985700        1
H        9.33200000      16.96930000      12.49970000        0
C       17.67460000       9.50197000       3.41103000        1
C       14.01750000       8.92446000      21.03240000        1
C       12.51710000       8.62358000      21.16500000        1
C       12.20360000       7.43905000      20.59640000        1
C       16.22620000      12.97010000       5.66365000        1
C       15.11690000      13.77050000       5.21503000        1
C       17.99590000      10.95710000       5.35483000        1
C       16.89910000      11.93960000       4.99079000        1
C        4.38853000      10.09480000      13.69970000        1
C        5.20612000      11.17420000      13.09770000        1
C        5.09745000       9.58928000      10.65800000        1
C        5.09682000      10.96800000      11.52810000        1
C       15.60830000      17.64060000      13.54210000        1
C       11.12000000      16.12800000       8.28417000        0
C       15.62740000      16.62740000      12.38700000        1
C       15.01410000      18.91590000      13.22310000        1
C       15.89900000      13.22730000      17.14070000        1
C       16.76740000      14.10340000      17.83380000        1
C       16.72800000      15.44870000      17.66730000        1
C       16.49130000      15.97990000      16.53280000        1
C       12.28840000      12.31390000       1.68620000        0
C       10.53890000      13.69650000       1.36326000        1
C        8.95841000      15.39580000       0.83956100        1
C        9.97155000      16.51110000       0.77580000        1
C       16.34380000      11.50960000       3.78599000        1
C       14.45130000      13.05350000       3.90004000        1
C       15.09450000      11.90350000       3.31776000        1
C       15.11690000      15.30000000       7.14905000        1
C       21.42470000      15.69140000       7.45882000        1
C       21.32170000      16.94800000       8.13731000        1
C       18.89370000      15.18670000       9.87249000        1
C       20.24790000      15.33990000       9.44886000        1
C       16.33320000      14.69800000       7.49523000        1
C       15.96220000      16.86520000       8.90009000        1
C       16.43860000      18.22880000       9.00712000        1
C       16.03660000      19.25520000       8.01656000        1
C       18.65910000      20.93650000      10.55540000        1
C       18.58210000      22.25130000      10.70930000        1
C       17.51770000      18.69250000       9.83213000        1
C       17.48630000      20.06220000      10.13880000        1
C       16.88650000      16.01290000      19.00240000        0
C       17.63000000       9.77778000      19.94340000        0
C       22.48410000      11.82180000       3.00224000        0
C       19.77120000      18.58630000      21.14900000        1
C       12.81790000      13.69100000       1.91691000        0
C       13.89050000      14.29000000       3.22057000        1
C       11.67570000      14.47770000       1.57416000        1
C       11.53770000      15.78480000       1.11261000        1
C       15.00200000      16.57190000       7.71497000        1
C       14.40950000      17.40220000       6.86240000        1
C       14.87850000      18.87070000       7.11824000        1
C       14.42150000      19.97960000       6.20783000        1
C       21.76790000      20.47240000       7.83221000        1
C       22.60930000      20.21170000       6.75352000        1
C       21.63130000      17.96720000       7.43476000        1
C       21.36770000      19.36320000       8.49085000        1
C       16.64260000      21.06410000       9.56387000        1
C       17.36210000      22.94590000      11.18550000        1
C       16.45320000      20.58710000       8.21094000        1
C       16.10680000      21.53530000       6.73822000        1
H       18.63250000      23.46220000       1.42980000        0
C       20.17340000      23.64480000       7.76903000        1
C       16.82300000      22.55360000      10.08000000        1
C       19.61580000      23.06890000      10.19370000        1
C       19.63220000      24.12800000       9.10061000        1
C       21.06770000      17.85720000      18.10510000        1
C       21.20360000      16.65290000      17.63190000        1
C       22.48040000      16.02240000      17.01770000        1
C       20.09800000      18.99290000      18.39500000        0
H       12.77240000      18.87360000       2.65686000        0
C       13.63050000      17.57770000      21.33570000        1
C       19.60450000      19.18280000      19.72060000        0
C       14.03970000      15.90310000       3.47336000        1
C       14.64200000      17.65320000       0.06383780        0
C       14.84320000      21.26620000       5.97262000        1
C       14.42300000      22.05820000       4.78124000        1
C       13.82170000       9.69550000       5.49347000        1
C       15.38560000      23.29370000       2.85320000        1
C       21.14160000       0.07773920       4.34728000        1
C       20.15960000       1.00933000       5.14680000        1
C       22.37380000      21.27010000       5.83696000        1
C       21.55850000      22.42950000       5.99638000        1
C       10.20840000       0.61028200      10.57270000        1
C       10.52120000       1.49124000       9.50864000        0
C       11.84070000      23.18270000       2.20982000        0
C       16.37610000       6.79741000       5.71694000        0
C       20.95970000       0.43450700      15.73920000        1
C       20.53000000       1.81742000      15.90070000        1
C       20.83520000      20.73340000      16.27990000        0
C       20.48270000      23.37990000      16.46160000        1
C       21.20100000      20.80740000      22.18160000        0
C       18.74470000      20.56510000      19.58060000        1
C       19.23120000      21.34040000      18.29030000        1
C       18.67230000      22.52070000      18.12690000        1
C        5.10801000       0.89168700      12.51750000        1
C        4.48572000      23.78250000      14.32220000        1
C       14.05400000      17.09590000       2.69194000        1
C        4.40841000       1.92983000      11.90750000        1
C       13.74190000      11.73230000       7.10959000        1
C       15.45080000       7.92708000       5.68548000        1
C        9.96706000       4.24398000       6.78691000        0
C       16.48280000       8.35699000       0.56802500        1
C       22.69480000       1.24704000       0.21816400        1
C       26.00770000       0.91484100      21.02920000        0
C       22.85620000       3.44041000       0.73779800        0
C       22.34280000      24.09500000       0.70031900        1
C       11.38680000      22.21640000      10.42630000        1
C       10.88430000      23.54260000      10.93000000        1
C       15.69710000      22.78450000       4.18524000        1
C       15.90420000       8.52257000       7.02917000        1
C       17.97310000       5.85083000      16.86950000        1
C       17.43230000       4.90802000      17.77720000        1
C       19.15920000       1.93848000      16.72380000        1
C       18.49800000       3.27150000      16.64920000        1
Cl      19.84000000      10.50380000      15.49250000        0
C       17.41960000      23.08740000      19.12820000        1
C       17.09610000       0.19763100      19.24290000        1
C       17.68920000       1.22415000      18.47490000        1
C       17.25690000       2.39517000      18.77990000        1
C       16.05810000       7.61719000      21.71810000        1
C       15.45810000       9.36611000       0.88060400        1
C       14.41790000      11.09970000       2.32269000        1
C       15.49060000      10.04000000       2.13603000        1
C       15.71610000      23.79050000       0.29234700        1
C       16.38110000      23.65970000       1.80771000        1
C       17.75910000      23.39230000       2.34170000        1
C       18.00380000      22.96490000       3.67509000        1
C       22.99770000       5.74801000      11.18380000        1
C       23.32590000       2.59751000       9.84690000        1
C       22.68790000       4.81477000       1.43081000        0
C       22.18760000       2.31623000       1.14735000        1
C       11.64450000      10.45520000       4.43917000        0
C       12.47010000       9.43525000       4.90657000        0
C       18.80710000       4.34646000       4.30216000        0
C       19.01780000       3.45434000       5.36274000        1
C       17.90270000      11.24870000      20.18060000        0
C       16.55560000       9.87365000      19.09790000        1
C       16.61490000       7.30975000      17.88320000        0
C       16.25690000       8.80648000      18.01500000        1
C       17.65030000       3.38807000      17.71840000        1
C       16.34860000       2.99863000      19.91930000        1
C       16.11780000       4.20832000      20.55140000        0
C       17.17270000       6.98360000      16.67000000        0
Cl      20.02560000      15.42930000      17.68590000        0
C       12.10730000       9.71155000      22.03290000        0
C       10.62830000       9.73688000       0.12603100        0
C       14.04010000       9.54185000       0.15466500        1
C       13.10670000      10.34040000       0.64761000        1
Cl      10.65520000      21.47230000      16.58250000        0
C       12.26730000       7.04594000       3.87201000        0
C       21.24560000      23.71200000       2.06984000        1
C       21.19450000       0.61793800       2.94997000        1
C       19.01580000       5.24210000      21.86860000        0
Cl      22.58020000       3.76482000      19.62080000        0
C       22.20520000      12.53990000       4.25561000        0
C       21.74700000      10.77150000       7.38102000        1
C       23.54890000       3.82057000       9.41477000        1
C       20.04270000       2.40766000       4.69527000        1
C       10.59400000       4.22797000       5.62628000        0
C       10.68140000       5.40879000       5.04268000        0
C       22.43080000      12.19940000       5.54201000        0
C       22.22930000      13.23440000       6.48284000        0
C       16.84040000      13.58030000      19.26250000        1
C       17.14060000      14.92290000      19.84480000        0
C       15.97540000      11.33500000      19.04250000        1
C       16.99700000      12.12830000      19.51670000        1
C       15.72170000      10.57980000      13.68680000        1
C       15.67890000      11.33450000      14.96280000        1
C       15.67300000      10.54060000      16.39050000        1
C       15.63080000      11.71270000      17.65630000        1
C        9.07757000      11.20200000       0.30912700        0
C        9.15557000      14.18800000       1.46843000        1
C       10.22740000      11.00280000       1.10290000        0
C       13.25270000      11.42940000       1.76027000        1
C       21.46380000       2.04846000       2.34898000        1
C       20.12830000       5.52704000       2.16889000        0
C       16.67730000       6.33156000      21.70670000        1
C       16.56160000      10.27150000       3.02340000        1
C       17.79230000      12.44460000       7.71571000        1
C       18.24450000      12.85600000       9.12421000        1
C       19.30000000      10.84900000       6.47358000        0
C       19.09670000      11.86840000       7.44460000        0
C       22.89020000      11.02110000       6.44802000        1
C       21.61640000      12.51910000       7.56779000        0
C       21.01300000      13.39150000       8.50788000        0
C       20.79790000      14.74090000       8.28594000        0
C       18.46380000      17.03550000      14.86180000        0
C       18.52690000      17.73350000      10.19820000        1
C       16.59700000      17.34390000      14.69590000        0
C       16.14750000      17.25110000      15.99730000        0
Cl      11.57110000       3.13854000       4.96457000        0
