1800
Lattice="37.9259956752 0.0 0.0 0.0 27.4694991031 0.0 0.0 0.0 25.4147825202" Properties=species:S:1:pos:R:3:ring:I:1 pbc="T T T"
C       24.95110000      17.73810000      17.61910000        1
C       25.36200000      19.03700000      17.89730000        1
C       26.37940000      19.42030000      17.11020000        1
C       26.88960000      20.74840000      16.62020000        0
Cl      23.88910000      16.95260000      18.76350000        0
Cl      20.52300000      25.07170000      23.28490000        0
H       26.77840000      12.28400000      16.67790000        0
H       28.84410000      16.71320000      17.54590000        0
C       28.93540000      14.01520000      22.45070000        1
C       26.48200000      22.34530000      20.93620000        0
C       29.81250000      16.35260000      22.60960000        1
C       29.55710000      14.97830000      23.08240000        1
C       26.33000000      22.13200000       3.66475000        0
C       26.32020000      23.46750000       3.56656000        0
C       23.19050000      22.88990000       4.10467000        0
C       22.05780000      23.60160000       4.17837000        0
Cl      27.36300000      21.02460000       2.04420000        0
Cl      22.01750000      15.03280000       3.27844000        0
H       31.23850000      20.52000000       3.11068000        0
C       25.39520000      22.79540000       5.58379000        0
C       25.75420000      24.01360000       5.20291000        0
C       24.37430000      21.29390000       7.17353000        1
C       24.78060000      22.64500000       6.78294000        1
H       25.41510000      20.64080000       4.98334000        0
C       22.27790000      18.54830000      12.18640000        0
C       21.69210000      18.64460000      10.80440000        0
C       21.89170000      20.04840000      10.01300000        0
C       21.53950000      21.40370000       9.68311000        1
C       27.87510000      21.64530000      14.83760000        0
C       27.10290000      22.71350000      15.52360000        0
C       27.62030000      19.26220000      15.05840000        0
C       27.66360000      20.56110000      15.59330000        0
Cl      28.66150000      21.63460000      13.26110000        0
Cl      34.90940000      11.74540000       8.10855000        0
H       22.51370000      25.55370000      18.02690000        0
C       26.36280000      22.09950000      16.71200000        0
C       25.48240000      22.60200000      17.75540000        0
C       24.65730000      23.17860000      18.56690000        0
C       23.44680000      23.63230000      19.14760000        1
H       24.39210000      19.71040000      18.09610000        0
C       26.84430000      27.14980000      21.34550000        0
C       25.74170000       0.22757100      21.13060000        0
C       26.74500000      20.98600000      20.66680000        0
C       27.63830000      26.38590000      22.14540000        0
Cl      16.38270000      19.17650000      24.43580000        0
Cl      26.87390000      19.35210000      21.07250000        0
H       28.43680000      25.99840000      21.43250000        0
H       30.51030000       2.52427000      21.15780000        0
C       20.89360000      23.04530000       5.04687000        0
C       20.23160000      22.01030000       5.55920000        1
C       20.47080000      20.58460000       5.40588000        1
C       21.72360000      20.04140000       4.64032000        1
Cl      29.33090000      20.29000000      24.96640000        0
H       22.34750000      20.71170000       3.86582000        0
H       15.12460000       0.67724000      12.23830000        0
C       23.94070000      27.31160000       6.64102000        1
C       24.26350000       1.28204000       6.78612000        1
C       25.70270000      25.52260000       5.46577000        0
C       24.81750000      25.86910000       6.49055000        0
Cl      26.26840000      27.02880000       4.52202000        0
C       20.76630000      22.40870000      10.22460000        1
C       21.23720000      23.68260000      10.60930000        1
C       22.04270000      24.20940000       9.36715000        1
C       22.12800000      25.46510000       8.83655000        1
Cl      14.95650000       2.74672000      20.53970000        0
H       22.87140000       2.26458000      14.14300000        0
C       26.66350000      25.89960000      14.28270000        0
C       25.47220000      26.07720000      14.94640000        0
C       27.20460000      24.16060000      15.13010000        0
C       27.35710000      24.73820000      13.86030000        0
Cl      30.67330000      24.64860000      16.20400000        0
Cl      24.17740000      17.53110000      22.31840000        0
Cl      27.65480000       0.02333570      14.13570000        0
H       27.92410000      24.75830000      13.03090000        0
C       22.74640000      24.78200000      18.90060000        1
C       22.17750000      25.54390000      19.92050000        1
C       21.50340000      26.90230000      19.79320000        0
C       21.13530000       0.31938400      18.81250000        0
Cl      27.75200000       9.19277000      24.36330000        0
C       22.68880000       2.40763000      20.88180000        0
C       22.69830000       2.15013000      22.13620000        0
C       24.64540000       1.15709000      21.26620000        0
C       23.90320000       1.90932000      20.16030000        0
H       24.10560000       2.00125000      19.06090000        0
C       22.09170000      18.72410000       4.79022000        1
C       21.13090000      17.98900000       5.37364000        1
C       19.91220000      18.51060000       6.01651000        1
C       19.50010000      19.85840000       6.03403000        1
Cl      23.84760000      18.21190000       4.68608000        0
Cl      19.83380000      25.15350000       0.81697100        0
H       21.25010000      16.93690000       5.60613000        0
C       27.57900000       3.25858000       7.22829000        0
C       26.54260000       8.99964000       5.53741000        0
C       25.24140000       2.43641000       6.72418000        0
C       26.48830000       2.68573000       6.24606000        0
Cl      28.34780000       4.89952000       7.25816000        0
H       26.72130000       8.94268000       4.52194000        0
H       26.90260000       2.44546000       5.02540000        0
C       21.20580000      26.81240000       9.06629000        0
C       20.65520000      27.33050000      10.67210000        0
C       20.41150000       0.95950600      11.38830000        0
C       20.31900000       2.40132000      11.20950000        0
C       24.51440000       2.39610000      15.72220000        1
C       23.53070000       2.98046000      14.71660000        1
C       24.91430000      27.42460000      15.16370000        0
C       24.52640000       1.02699000      15.53640000        0
Cl      23.95100000       5.03140000      20.00740000        0
H       19.75510000       0.84293600      12.36670000        0
C       21.11160000       2.57743000      20.54940000        0
C       20.83180000       3.93867000      20.17100000        1
C       22.50730000       2.72221000      23.20610000        0
C       22.04440000       3.35629000      24.36750000        0
C       25.96450000       3.00737000      22.79510000        0
C       26.73570000       3.90358000      22.12070000        0
C       24.21000000       1.36061000      22.57120000        0
C       25.33330000       2.09601000      23.37520000        0
Cl      28.81680000       2.22601000      23.20770000        0
H       28.53290000       6.75693000      24.03110000        0
H       26.10450000       1.03740000      23.55190000        0
C       18.29240000      20.51580000       6.48865000        1
C       18.12570000      21.87360000       6.54262000        1
C       19.25000000      22.54600000       6.32543000        1
C       19.17890000      24.14910000       6.20526000        0
Cl      37.57110000      25.08110000      24.19200000        0
Cl      33.08070000      15.57620000      19.88250000        0
H       17.47250000      19.79920000       6.71291000        0
H       30.41500000       6.57731000       2.74965000        0
C       29.33990000      11.65340000       6.54483000        0
C       29.08140000      13.08030000       5.93317000        1
C       27.90380000       9.54529000       5.96126000        0
C       28.13160000      10.74180000       6.68354000        0
H       27.04260000      11.22570000       6.59385000        0
C       19.63770000       3.50993000      11.31790000        0
C       18.67430000       4.51586000      11.93160000        0
C       19.09140000       5.66899000      12.39840000        0
C       19.29410000       6.75637000      13.05480000        0
Cl      22.08910000       4.85150000      13.73060000        0
Cl      23.38370000      25.61310000      12.28040000        0
Cl      17.50290000      24.31310000      10.21960000        0
C       22.98980000       5.27052000      17.21060000        1
C       23.00130000       6.68001000      17.54160000        1
C       23.07610000       4.21211000      14.90400000        1
C       23.67710000       5.37824000      15.92860000        1
Cl      21.05450000       4.86443000       7.14128000        0
C       20.77580000       3.21406000      24.73830000        0
C       19.69580000       3.64814000       0.29851800        0
C       19.40790000       4.89160000       0.79037900        0
C       20.46810000       5.80260000       0.59034900        0
Cl      14.57940000      13.56900000       9.01704000        0
C       26.53710000       7.30870000      21.16410000        0
C       27.00480000       8.56497000      20.57680000        0
C       26.95690000       4.91938000      21.24400000        0
C       26.53650000       6.21576000      21.77740000        0
Cl      19.69450000      11.74010000      19.42850000        0
H       15.96480000      12.64150000       5.02288000        0
H       28.15710000      16.69080000      15.02310000        0
C       20.34680000      24.38270000       5.42521000        0
C       20.60420000      25.19230000       4.36516000        0
C       21.74470000      24.82780000       3.53442000        0
C       22.49610000      25.64930000       2.59737000        0
C       26.59860000      13.40780000       2.91893000        1
C       25.38000000      12.58710000       2.61695000        0
C       28.33910000      13.50170000       4.76936000        1
C       27.29430000      12.78600000       3.88942000        1
Cl      29.05130000      18.46230000       0.98535200        0
H       26.98870000      11.61630000       4.17177000        0
C       19.78930000       7.35341000      14.09720000        0
C       20.75450000       7.89721000      14.94290000        0
C       21.90200000       8.40008000      15.60550000        0
C       22.78600000       9.24196000      16.12460000        0
Cl      25.45580000       2.01761000       1.27124000        0
Cl      24.69730000       4.80074000      11.11370000        0
Cl      27.42170000       4.80584000      19.69770000        0
H       22.29320000      10.73560000      19.23370000        0
C       22.38450000       9.21757000      17.90330000        0
C       22.62830000      10.62560000      18.13790000        0
C       22.10780000       7.00441000      18.49670000        1
C       22.06450000       8.28865000      18.87410000        1
C       20.76110000       7.00664000       0.95246800        0
C       21.43530000       8.19395000       0.78344300        0
C       20.95820000       9.40182000       0.91202400        0
C       20.30590000      10.43070000       1.47836000        0
C       26.34740000      11.96240000      21.17040000        1
C       27.27180000      12.43320000      20.07970000        1
C       26.69550000       9.86378000      20.33500000        1
C       25.84980000      10.61750000      21.27880000        1
Cl      27.35880000      17.54560000      24.75600000        0
Cl      26.15580000      13.08220000      22.48010000        0
Cl      13.54820000      17.07510000      23.41940000        0
H       28.86570000      11.22550000      25.33120000        0
H       25.45470000       9.96789000      22.31430000        0
C       22.65700000      27.11480000       2.88576000        1
C       19.84020000      26.33820000       4.00738000        0
C       22.07280000      14.87170000       1.62120000        0
C       22.82760000      15.14430000       0.48066100        0
C       24.76870000       9.83997000       3.31176000        0
C       25.70090000       9.39190000       2.41611000        0
C       24.35100000      12.70490000       3.69395000        0
C       24.90630000      11.34010000       3.44869000        0
H       26.49640000      10.08530000       1.66875000        0
H       24.02820000       9.51765000       3.93783000        0
C       23.07840000      10.58420000      15.75020000        0
C       23.93990000      11.11170000      14.71080000        0
C       24.19640000      12.27480000      15.32670000        0
C       24.59040000      13.60620000      14.86110000        0
Cl      14.45040000      13.78610000      20.67250000        0
H       19.03750000      14.72750000       9.10338000        0
C       24.38370000      13.60120000      17.29230000        0
C       24.43870000      14.60550000      16.31770000        0
C       23.19950000      11.37470000      17.10270000        0
C       23.81520000      12.52590000      16.67950000        0
Cl      19.36400000       8.81216000       9.31299000        0
H       21.39750000      19.06360000      12.58010000        0
C       20.01860000      11.67260000       1.44998000        0
C       20.80340000      12.72010000       1.45018000        0
C       21.56180000      13.66570000       0.97558300        0
C       23.38030000      16.11550000      25.32070000        0
H       24.09620000      15.32560000      24.98440000        0
C       28.61520000      15.55920000      20.82120000        1
C       29.24730000      16.69840000      21.47290000        1
C       27.81350000      13.71550000      20.13570000        1
C       28.41830000      14.38300000      21.25700000        1
Cl      18.41750000       9.40557000       4.77510000        0
H       25.94290000      22.95840000      20.09240000        0
C       22.17130000      13.97350000      25.26530000        0
C       22.89080000      13.22220000      24.41730000        0
C       23.90530000      21.83970000       3.86592000        0
C       25.18600000      21.66720000       4.59695000        0
Cl      25.28030000      12.39350000       0.84682800        0
Cl      18.90450000      17.04750000      23.67460000        0
H       23.40970000      12.38260000      25.08590000        0
C       25.70100000      19.00760000       7.22371000        0
C       25.13280000      20.09100000       6.95762000        0
C       25.73660000       8.21856000       1.85055000        0
C       26.09150000       7.09815000       1.26970000        0
Cl      27.11060000      24.51890000       2.52899000        0
Cl      26.18930000       7.30583000       6.15217000        0
H       14.23650000      21.94900000       6.41032000        0
H       23.25810000      14.93400000      11.66060000        0
H       27.07540000       6.42727000       1.45819000        0
C       24.71920000      14.45620000      13.63500000        0
C       24.42460000      15.72130000      14.11270000        0
C       23.60650000      16.75390000      13.42590000        0
C       23.14910000      17.40750000      12.13370000        0
C       26.31180000      17.31550000      15.85120000        1
C       27.01750000      18.44590000      16.25270000        1
C       24.47690000      15.72550000      15.71760000        0
C       25.08080000      16.93890000      16.34170000        1
Cl      23.49650000      12.68170000      11.95980000        0
C       26.79690000      11.88820000      18.78760000        1
C       26.91290000      12.68120000      17.70560000        1
C       27.35920000      13.87590000      17.78290000        1
C       27.90200000      14.56580000      18.92790000        1
H       34.01660000      19.21270000      20.62110000        0
C       30.61970000      13.65120000      24.95910000        0
C       30.27930000      14.91950000      24.27940000        0
C       29.79620000      12.10860000       1.40904000        0
C       29.80270000      13.32590000       0.67264800        0
Cl      31.29240000      12.41310000      24.18100000        0
Cl      30.67170000      12.62820000       2.92343000        0
H       25.18840000      17.54020000      23.09410000        0
H       31.45990000      22.26620000      22.15320000        0
H       29.36180000      14.08510000       1.28943000        0
C       30.75930000      17.99310000       3.23467000        0
C       30.56770000      19.51840000       3.38982000        0
C       29.80860000      20.07330000       4.19157000        0
C       29.88650000      21.64460000       4.32369000        0
Cl      28.75150000      18.82510000       5.20836000        0
Cl      37.24620000      15.31360000       0.71103700        0
H       37.29380000      17.56330000       1.34982000        0
H       28.84600000      21.88940000       4.00037000        0
C       36.30280000      18.83600000       2.87957000        1
C       36.66090000      17.59520000       2.21529000        1
C       34.46890000      17.66670000       4.16693000        1
C       35.10940000      18.89330000       3.65327000        1
Cl      23.55250000      19.90570000      12.15010000        0
Cl      30.01170000      19.12910000      18.10740000        0
C       26.61090000      17.86040000       9.29650000        0
C       27.21250000      16.74380000       9.63208000        0
C       27.41410000      15.47290000       9.33426000        0
C       27.75110000      16.83130000      10.97140000        0
Cl      22.47960000      17.83890000      14.48920000        0
C       28.17920000      15.65880000      11.45190000        0
C       27.35660000      18.92920000      12.68960000        0
C       28.82050000      13.51010000      10.22730000        0
C       28.30230000      14.81200000      10.24990000        0
Cl      28.36720000      14.81150000      12.81580000        0
C       28.69000000      15.73940000      19.45010000        1
C       29.17540000      16.71950000      18.57680000        1
C       29.40810000      17.98860000      19.33960000        1
C       29.73100000      17.94100000      20.71350000        1
Cl      28.09220000      14.59220000      16.48910000        0
H       33.23930000      21.17090000      19.46390000        0
C       31.27030000      18.04680000      22.77570000        1
C       32.14840000      19.07840000      23.16810000        0
C       31.11900000      16.00950000      24.35620000        0
C       30.90810000      16.87490000      23.30970000        1
Cl      23.77670000      20.60020000       2.52340000        0
H       32.57860000      18.68570000      24.12620000        0
C       30.51570000      22.74520000       4.77040000        0
C       29.60880000      23.84840000       5.31516000        0
C       29.40680000      25.38020000       5.23437000        0
C       34.91120000      21.05910000      25.38360000        0
Cl       1.60977000       5.86690000       5.87227000        0
H       35.87990000      20.39830000       0.47634300        0
C       37.47980000      22.08310000       0.62677500        0
C       36.42050000      22.91240000       0.14461900        0
C       36.56160000      20.03050000       2.28433000        0
C       36.97540000      20.74860000       1.24909000        0
Cl      28.24210000       4.91163000      10.33160000        0
C       27.36700000      18.22320000      11.48960000        0
C       26.78370000      18.84680000      10.36200000        0
C       26.57640000      20.19220000      10.39700000        0
C       26.67430000      21.45670000      10.41130000        0
Cl      18.30020000      13.66480000       7.32803000        0
C       31.46940000      23.16330000      11.16310000        0
C       31.88410000      22.80580000       9.87398000        0
C       27.62780000      18.32800000      13.98010000        0
C       27.19250000      16.97990000      14.41000000        0
Cl      32.12030000      23.85590000      12.51340000        0
H       25.03260000      25.31120000      15.37070000        0
H       25.81940000       6.78638000       0.07522990        0
C       30.73110000      18.64990000      21.41170000        1
C       31.15980000      19.80500000      21.38040000        0
C       30.99470000      20.77950000      20.41190000        0
C       30.43680000      22.03140000      20.18750000        0
Cl      29.84430000      23.46610000      11.25150000        0
H       35.76350000      27.15100000      18.19520000        0
C       26.83820000      23.04120000      22.02920000        0
C       26.66030000      24.23890000      22.39340000        0
C       32.09900000      20.16170000      22.46340000        0
C       32.45500000      21.79750000      22.47920000        0
Cl      28.27330000      22.15480000      22.68360000        0
Cl       3.52426000      25.03810000       1.92269000        0
Cl      32.56650000      15.92040000       0.14859100        0
H       32.84750000      21.73480000      23.42190000        0
C       33.70920000      20.45580000       0.36373200        0
C       32.42560000      21.17210000       0.13760800        0
C       32.76500000      23.27540000       0.09009010        1
C       32.46350000      24.56310000      25.28190000        1
Cl      33.77870000      18.74380000       0.95630100        0
H       31.64640000      21.31320000       0.89102600        0
C       36.35370000      24.10240000      24.81570000        0
C       34.88040000      24.46770000      24.45140000        1
C       35.07150000      22.46360000       0.02788540        0
C       34.22460000      23.37860000      25.04950000        1
Cl      33.96570000      22.43700000       3.13441000        0
Cl      35.07590000      23.94500000      14.70230000        0
H        4.63504000      14.35130000      24.12140000        0
C       26.92110000      22.79620000       9.86746000        0
C       26.30480000      24.06850000      10.27440000        1
C       25.38020000      24.13110000      11.26250000        1
C       24.67990000      25.34380000      11.31930000        1
Cl      18.47570000      17.12330000       8.43717000        0
H       24.91560000      23.13790000      11.18850000        0
H       27.67450000       0.19387600       8.18697000        0
C       32.58890000       2.31160000      14.42770000        1
C       32.24340000       3.62995000      13.70720000        0
C       32.57460000      27.41500000      14.64360000        1
C       32.71430000       1.09649000      13.97120000        1
Cl      31.74520000      26.04930000      13.76220000        0
H       32.95190000       0.82997400      12.96910000        0
C       30.69970000      23.39860000      19.89140000        0
C       30.44790000      24.68940000      20.12070000        0
C       30.10470000      25.91930000      19.95680000        0
C       30.29260000      27.06480000      19.35890000        0
Cl      27.25860000      26.39560000      18.21870000        0
C       28.08220000      26.61810000      24.89750000        0
C       29.30100000      27.05840000      25.05540000        0
C       26.84320000      24.64470000      23.71830000        0
C       27.76460000      25.90670000      23.75490000        0
Cl      27.07630000      23.50780000      25.16710000        0
C       29.84240000       4.55501000       3.39462000        0
C       30.55240000       5.65762000       3.36329000        0
C       31.59170000       5.80169000       4.53918000        0
C       33.03090000       5.69454000       4.38835000        0
Cl      30.03600000       3.40438000       4.59050000        0
Cl      28.20510000       4.95772000       2.91998000        0
Cl       1.78226000      10.71250000       7.62178000        0
H       31.44360000      20.99380000      24.81260000        0
H       34.45810000      27.39320000       2.11905000        0
C       28.94670000       8.88744000       5.19863000        0
C       30.11590000       9.01373000       4.74984000        0
C       34.05050000      25.05450000      23.61160000        1
C       34.58660000      25.97060000      22.70050000        1
H       35.78660000      26.03560000      22.90130000        0
C       25.37420000      26.37300000      10.59350000        1
C       24.76170000       0.04829350      10.98490000        0
C       25.30580000       1.30677000      11.10860000        1
C       25.20630000       2.16745000      12.27380000        1
Cl      35.01340000       3.95014000       7.58126000        0
H       23.81770000       0.13366400      11.52970000        0
H       24.17560000       2.15390000      12.69610000        0
C       32.68400000       6.49424000      14.87790000        0
C       31.31710000       6.59137000      14.82100000        0
C       33.17810000       4.56852000      13.35590000        0
C       33.48820000       5.94015000      13.70900000        0
H       23.51020000       7.59538000      16.88580000        0
C       30.68040000       0.87097600      19.06150000        0
C       31.29440000       1.92028000      18.72460000        0
C       31.52940000       3.23750000      18.86810000        0
C       31.56550000       3.75399000      20.23380000        0
H       23.97000000       0.66783300      23.30210000        0
C       31.80560000       2.12890000       0.23424700        0
C       32.16210000       3.37649000       0.27282900        0
C       30.12440000       0.50285000       0.29609700        0
C       31.46050000       0.92581100      25.16670000        0
Cl      32.74980000       6.88245000      17.99350000        0
Cl      29.09110000       0.74539500       1.63699000        0
H       31.99830000       0.17759000      24.83100000        0
C       36.10390000       9.02128000       4.53785000        0
C       35.03240000      10.43810000       3.99368000        0
C       33.41910000      10.00980000       4.04014000        0
C       32.73670000      10.28490000       2.79358000        0
Cl      36.46580000       7.96681000       3.01820000        0
Cl      31.19500000       5.35128000       6.09039000        0
C       30.25460000      13.68940000       5.91563000        1
C       28.68250000      14.72330000       4.33555000        1
C       31.39870000       8.97214000       4.06532000        0
C       32.69300000       9.20478000       4.90930000        0
H       35.30710000       8.55191000       5.11964000        0
C       26.18960000       3.03114000      12.86430000        1
C       26.03570000       4.26762000      13.48340000        0
C       26.27750000       5.44300000      14.07680000        0
C       26.60250000       6.46953000      14.78610000        0
Cl      29.22520000       7.93850000      20.84400000        0
H       23.93920000       6.43912000      15.61430000        0
C       29.45000000       9.38944000      16.09890000        0
C       29.98700000      10.25290000      14.96780000        0
C       30.37600000       7.02535000      15.71930000        0
C       29.63600000       7.84937000      15.89200000        0
C       30.98490000       3.45827000      21.43230000        0
C       31.18280000       4.33458000      22.44260000        0
C       30.71180000       5.20950000      23.22750000        0
C       30.66800000       6.01992000      24.43110000        1
C       32.19040000       7.30893000       0.63333500        1
C       31.00350000       8.13527000       0.83756000        1
C       31.96230000       4.65251000       0.38433200        0
C       31.62200000       5.88214000       0.12820700        1
Cl      29.08770000      12.23980000      22.68800000        0
H       27.08560000       0.15246900      18.25400000        0
C       31.49070000       9.57479000       2.87081000        0
C       30.65170000       9.05571000       1.71057000        0
C       26.87400000      14.77870000       2.48743000        1
C       26.43060000      15.66890000       1.14295000        1
Cl      31.91920000       2.50740000       6.48587000        0
H       37.25920000      11.35920000      25.30970000        0
H       25.55300000      15.61770000       0.66732600        0
C       30.71520000      14.94150000       5.50573000        1
C       32.19820000      14.90480000       5.31120000        0
C       27.95090000      15.41520000       3.25307000        1
C       29.80800000      15.71210000       4.78958000        1
Cl      31.86300000      13.86590000      12.55350000        0
C       26.19960000       6.88741000      16.13200000        0
C       26.03190000       5.41683000      16.70280000        0
C       24.95160000       4.61895000      16.53850000        1
C       25.20370000       3.33405000      16.42920000        1
Cl      26.13190000       7.90285000      17.36780000        0
H       27.02690000       4.89075000      16.85970000        0
H       33.34160000       7.21204000      15.18190000        0
H       26.17200000       2.94616000      16.74270000        0
C       28.55780000      10.27010000      11.48060000        0
C       28.68700000       8.84049000      11.08830000        0
C       28.64650000      10.67550000      14.16010000        0
C       28.65180000      10.70540000      12.81040000        0
Cl      23.75130000      20.09810000      20.55980000        0
H       24.61540000      14.29720000      12.43560000        0
H       31.07310000      11.13610000      13.34070000        0
C       29.48450000       6.64158000      24.48410000        1
C       28.75230000       9.82272000      17.14880000        0
C       27.87520000       9.86723000      18.02460000        0
C       26.89920000      10.42360000      18.98000000        1
Cl      25.59630000       5.92739000      23.24830000        0
C       29.41480000       9.80669000       1.22668000        0
C       29.25110000      11.10870000       0.82895400        0
C       29.75590000       7.63585000       0.15528300        1
C       28.93500000       8.84744000       0.17785300        0
Cl      23.79610000      13.77550000      18.88900000        0
Cl      35.21290000      11.29430000      23.43320000        0
H       32.80620000       7.41139000       1.60458000        0
C       27.52490000      16.39610000       0.77970800        1
C       28.17800000      17.12520000       1.69304000        1
C       28.32490000      16.84970000       3.10063000        1
C       29.69080000      17.06430000       3.70171000        0
H       36.42790000      14.01570000       5.98543000        0
H       31.87990000      17.76190000       3.35520000        0
C       33.01280000      15.77930000       4.69326000        0
C       33.28360000      17.15770000       4.80491000        0
C       32.39560000      13.56940000       5.88555000        0
C       33.46440000      12.68110000       5.30051000        0
Cl      23.17490000       8.13877000       0.30188300        0
H       32.54460000      18.07900000       5.07251000        0
H       24.74130000      16.47950000       6.56921000        0
H       33.61470000      11.51920000       5.51967000        0
C       26.40880000      14.48290000       8.88059000        0
C       25.24720000      15.00320000       7.87896000        0
C       25.38000000      16.33040000       7.35423000        0
C       25.89770000      17.69100000       7.93508000        0
Cl      26.09880000      12.96020000       9.62477000        0
Cl      24.25020000      13.93460000       4.80967000        0
H       24.36210000      14.77200000       7.47207000        0
C       28.43760000      10.93990000      10.18090000        0
C       28.85710000      12.26460000      10.04500000        0
C       28.49420000       8.77298000       9.65827000        0
C       28.21290000      10.06490000       9.19149000        0
Cl      28.92280000       7.37905000       8.83645000        0
H       28.41910000      10.56630000       8.18227000        0
C       35.74200000      19.19100000      22.25100000        1
C       35.01500000      19.57130000      21.07120000        1
C       35.18310000      20.92780000      20.67320000        1
C       34.23660000      21.66660000      19.66750000        1
Cl      36.38740000      16.59350000      18.77680000        0
Cl       8.05817000       5.68460000      11.79160000        0
H        3.28061000      17.58990000      16.13520000        0
C        3.43540000      20.20470000       0.44899000        0
C        2.50093000      20.72560000      25.17660000        0
C        0.66482000      23.04140000      22.03370000        0
C        1.60224000      23.27920000      22.76080000        0
Cl       1.28159000      18.82770000      24.50340000        0
C       35.02950000      16.48310000       3.63646000        1
C       36.00340000      16.32330000       2.52129000        1
C       36.46610000      15.05150000       2.29511000        1
C       36.51330000      14.12930000       3.14463000        1
Cl      32.01870000      22.59140000       5.51226000        0
Cl      37.81510000      10.51170000       2.36232000        0
H       37.15690000      12.98520000       3.33869000        0
C       34.36330000       0.01829560       4.90601000        0
C       34.04150000       1.48363000       5.00379000        0
C       34.13690000      25.19420000       4.38776000        0
C       34.29070000      26.61110000       3.92651000        0
H       36.68760000       0.93065600       8.34744000        0
C       30.62600000      11.51600000       6.77254000        0
C       28.36670000      25.72790000       6.11406000        0
C       27.99210000      24.64650000       6.91738000        0
C       29.07560000      23.60280000       6.61501000        0
Cl      37.65100000      17.31680000       9.53320000        0
H       28.14630000      26.59610000       6.60538000        0
C       32.29010000      16.10610000      16.45890000        0
C       32.71410000      14.78270000      16.73570000        0
C       34.81630000      21.58300000      16.33630000        0
C       35.53070000      22.54520000      15.73240000        0
H       31.95740000      14.23890000      17.31440000        0
H       26.64960000      19.81820000      12.85190000        0
H       32.89360000      17.09080000      16.84740000        0
C       34.42230000      23.00170000      19.38440000        1
C       33.88770000      24.05960000      18.46800000        0
C       32.83400000      23.90570000      17.78140000        0
C       32.24080000      24.99220000      16.81670000        0
Cl      37.49060000      17.97220000       6.40929000        0
C        2.42850000      22.63830000      23.74070000        0
C        3.95988000      22.76420000      23.85630000        0
C        1.71618000      21.77020000      24.60050000        0
C        0.63516600      22.43490000      25.38020000        0
Cl       8.62442000       6.80995000      23.91930000        0
H        0.54319300      23.22880000      24.56290000        0
C       33.73490000       0.80230300      17.63740000        0
C       33.72350000      26.88870000      17.59250000        0
C       34.98020000      26.46080000      18.14830000        0
C       35.28210000      25.18980000      18.64760000        0
Cl      31.81720000       0.76194000      22.37880000        0
Cl      34.13900000       1.59943000      19.08380000        0
Cl      35.60800000      16.86120000       7.20158000        0
H       32.88100000      22.82660000      17.25850000        0
C       31.70140000      26.72990000       7.35988000        0
C       32.68630000      27.37080000       6.37758000        0
C       32.67720000       1.21013000       5.86905000        0
C       26.57080000       1.55305000      10.56060000        1
Cl      32.66230000      25.86130000       8.65165000        0
H       30.91610000      22.56990000       9.27302000        0
C       28.91630000      22.47760000       7.55154000        0
C       27.91350000      23.09030000       8.57603000        0
C       27.59520000      24.45600000       8.41601000        0
C       26.67850000      25.09150000       9.41273000        1
H       33.76220000       0.33131400       9.27125000        0
C       31.51140000      15.43050000      13.05970000        0
C       31.65020000      16.34760000      12.12600000        0
C       31.61620000      16.64750000      15.49470000        0
C       31.10440000      15.67590000      14.40280000        0
Cl      29.54720000      20.73360000       7.67210000        0
H       31.43910000      16.03270000      11.10290000        0
H       32.99980000      23.08130000       9.55528000        0
H       30.77450000      14.53500000      14.70780000        0
C       32.71120000      26.25900000      16.78350000        0
C       32.61880000      27.40480000      15.98040000        1
C       32.96310000       1.18736000      16.59150000        1
C       32.80290000       2.43701000      16.03270000        1
Cl      37.24110000      26.16030000       1.51266000        0
H       35.60230000      26.05590000      14.18460000        0
C        6.62590000      25.10490000      23.19300000        0
C        6.18970000      25.82070000      21.87160000        0
C        5.09058000      23.09020000      23.49130000        0
C        6.23257000      23.90980000      23.81230000        0
H       26.26610000      25.08650000      21.75630000        0
C       36.19760000      24.51330000      19.47330000        0
C       35.67150000      23.42770000      20.05880000        1
C       37.92580000       6.90899000       5.75400000        0
C        0.34270300       8.33307000       5.58241000        0
Cl       5.55491000      20.33090000       4.65501000        0
C       32.71740000      25.33920000      24.15530000        1
C       31.83060000      26.12430000      23.45990000        1
C       34.03670000      26.79660000       6.11842000        0
C       34.23540000      25.27580000       5.94533000        0
Cl      35.06910000       2.08790000       1.05079000        0
Cl      36.57790000       6.41942000       6.87756000        0
H       30.79890000      25.91380000      23.76890000        0
H       33.79080000      24.78370000       6.70540000        0
H       30.70680000       0.01353020       7.43948000        0
C       26.48120000      26.46480000       9.64550000        1
C       26.74360000       0.07123270       8.79985000        0
C       26.70570000       1.45487000       9.05955000        0
C       27.31760000       2.72989000       8.59677000        0
C       32.53020000      20.00810000      12.78480000        0
C       33.41810000      20.98160000      13.16810000        0
C       31.71580000      17.69960000      12.41180000        0
C       32.67630000      18.58470000      12.94890000        0
Cl      33.00860000      18.59780000      17.98590000        0
H       32.73980000      21.94430000      13.40070000        0
H       33.45400000      18.36490000      13.40500000        0
C       32.46090000       3.66210000      16.47340000        0
C       32.03400000       4.30251000      17.94260000        0
C       32.58440000       5.36376000      18.66450000        0
C       32.50800000       5.01211000      20.06360000        0
C        3.18013000      27.40450000      23.65270000        1
C        2.37265000      27.36450000      22.52360000        1
C        4.92775000      26.63930000      21.94900000        1
C        4.50221000      26.82380000      23.42490000        1
Cl       2.53397000       0.33551800      25.24950000        0
H        1.39207000       0.41713200      22.53140000        0
C       37.22120000       9.34569000       5.42879000        0
C       37.31610000      10.66870000       5.84350000        0
C        0.48426900      11.39390000       6.43955000        0
C        0.21937000      12.66890000       6.69515000        0
H       35.58220000       8.27139000      18.27990000        0
C        5.65209000       9.55761000       3.17361000        0
C        3.94784000      10.06530000      25.31830000        0
C       32.40700000      26.83240000      22.48710000        1
C       33.72780000      26.67750000      22.02050000        1
Cl       5.73407000      12.48890000      21.63290000        0
Cl       1.52007000      13.85180000       6.72656000        0
H       33.43480000       5.93283000       3.26944000        0
H       33.93190000      27.25900000      21.10570000        0
C       27.82650000       3.36354000       9.75601000        0
C       27.40740000       2.48514000      11.13160000        1
C       27.55590000       2.68239000      12.50360000        1
C       28.92030000       3.04852000      12.69500000        0
H       29.56490000       2.70640000      11.76450000        0
C       35.43390000      23.74830000      10.49680000        0
C       35.29750000      25.03410000      11.28830000        0
C       34.38820000      21.55480000      11.77690000        0
C       34.62580000      22.61140000      11.15250000        0
Cl      37.32130000      22.88620000      10.73990000        0
H       32.57490000       4.46588000      15.88090000        0
C       32.48710000       6.05136000      20.92670000        0
C       32.73420000       7.41279000      20.88340000        0
C       32.84130000       8.63083000      20.98260000        0
C       32.85950000       9.86865000      20.95360000        0
Cl       3.23970000       2.14232000      18.84320000        0
C       31.17960000      10.81760000      14.34690000        0
C       32.39470000      10.80700000      14.83250000        0
C        2.73328000      26.81660000      21.21380000        1
C        4.18940000      26.71800000      20.88470000        1
Cl      32.47430000      10.96190000      16.72480000        0
Cl       2.02364000      25.95940000      19.69230000        0
C       36.81100000      12.95990000       6.34425000        0
C       36.33130000      11.81800000       5.62598000        0
C       35.38660000      11.65960000       4.57214000        0
C       35.02590000      10.80520000       2.42025000        1
Cl      35.02810000      14.66200000      11.29880000        0
H       32.61450000      10.92790000       0.04391420        0
C        6.72265000      10.95430000       4.58284000        1
C        6.58947000       9.51822000       4.18328000        1
C        5.41648000      10.83460000       2.72888000        1
C        6.48256000      11.73500000       3.43926000        1
C       29.62720000       3.27642000      13.84770000        0
C       30.88350000       4.08613000      13.63270000        0
C       30.77510000       5.60234000      13.52860000        0
C       30.83690000       6.28336000      12.47930000        0
Cl      29.01000000       3.59413000      15.46630000        0
C       35.33100000       0.52310700      13.14440000        0
C       35.33890000       1.71034000      12.78030000        0
C       35.42090000      26.11110000      12.00750000        0
C       35.48210000      26.75410000      13.26900000        0
Cl      36.81850000      13.77880000      17.57460000        0
Cl       0.28406000      26.31570000      16.61010000        0
H       35.51790000      24.18810000       9.54958000        0
C       33.12200000      11.04930000      20.75570000        0
C       33.22180000      12.25470000      21.13210000        0
C       33.54860000      13.39060000      21.17990000        0
C       35.37300000      14.29550000      23.38080000        0
Cl       3.21677000       8.73752000       2.36300000        0
H        1.39304000      13.51600000      17.04040000        0
C       36.57730000      19.93080000      23.04610000        1
C       36.78620000      21.25180000      22.56820000        1
C       33.62100000      10.14190000      14.19770000        0
C       33.39260000       8.72519000      13.90620000        0
Cl       6.18182000      15.72470000      21.87980000        0
H       37.56000000      25.91240000      20.66010000        0
H       32.62200000       8.17037000      13.16530000        0
C       36.08290000      11.10400000       1.68628000        1
C       36.22230000      10.94170000       0.28165300        1
C       34.91640000      11.05100000      25.20440000        1
C       33.67540000      11.28250000       0.42139900        1
Cl      25.11130000       9.78137000       6.17410000        0
C        1.16224000      14.86400000      13.48220000        0
C        1.15796000      15.27990000      11.99460000        0
C        4.71765000       8.58092000       2.76119000        0
C        0.16203100      13.98820000      13.72380000        0
H       37.72930000      13.77440000      14.61030000        0
C       31.25120000       7.20068000      11.57650000        0
C       31.28890000       8.14244000      10.77130000        0
C       31.53000000       8.95389000       9.73645000        0
C       31.06770000       9.72019000       8.85896000        0
H       32.69150000       8.38877000       5.61071000        0
C       36.15430000      15.00890000      16.69740000        1
C       35.79600000      16.19430000      17.21920000        1
C       35.33380000       3.12772000      12.87560000        0
C       34.40310000       4.23691000      12.61380000        0
H       28.89030000       8.19824000      11.88350000        0
C       33.80050000      14.67550000      21.53080000        0
C       34.65190000      15.13780000      22.41230000        0
C       34.96490000      16.57580000      22.45300000        0
C       35.50490000      17.71570000      22.37740000        0
Cl      37.26960000      20.51660000       8.29187000        0
H        3.13566000      19.26260000      14.81810000        0
H       37.26200000      22.15550000      23.05730000        0
C       37.47350000      23.75490000      21.23110000        0
C       37.31360000      24.92510000      20.36150000        0
C       36.17180000      21.56290000      21.36340000        1
C       36.39910000      22.91540000      21.07210000        1
Cl      33.14410000      21.26120000      15.86970000        0
Cl       0.77564000      16.11480000      22.78770000        0
C       33.71020000      10.90210000       1.85297000        1
C       34.56260000      12.92700000       4.44864000        0
C       35.02430000      14.11460000       3.93541000        1
C       34.34540000      15.37550000       3.98428000        1
C        3.29689000      16.78930000       9.10464000        0
C       34.09920000      24.10000000       3.29751000        0
C        1.87145000      15.85550000      10.99730000        0
C        2.45586000      16.41800000      10.15550000        0
H        4.13293000      19.20810000       0.50127300        0
C       31.24490000      10.93090000       8.02667000        0
C       31.79110000      12.15910000       8.85679000        0
C       31.53340000      13.28380000       8.23215000        0
C       31.22710000      13.00530000       6.76545000        0
Cl      31.91020000      15.04850000       8.71234000        0
H       32.60000000      12.07260000       9.59058000        0
C       35.11400000      19.77700000      17.17240000        0
C       35.88850000      20.85730000      17.04650000        0
C       35.37720000      17.36240000      16.48630000        1
C       34.60430000      18.64910000      17.09200000        0
Cl      28.54630000      16.25000000       6.60366000        0
H       26.66070000      16.39620000      13.54570000        0
C        1.24039000      18.16830000      16.60210000        1
C        2.51549000      17.90290000      17.02170000        1
C        3.20777000      17.99330000      18.15000000        1
C        2.28872000      18.20610000      19.24080000        1
Cl      11.38620000      11.68720000      19.51410000        0
H       11.26190000       9.01682000      19.70410000        0
H        2.71371000      17.39510000      20.04560000        0
C        8.83115000      20.89120000      22.74710000        0
C        8.38096000       5.28155000      21.27380000        0
C        8.81434000      19.73270000      20.60630000        0
C        9.03422000      19.72120000      22.12940000        0
Cl       8.43258000      22.26940000      21.85710000        0
Cl       8.72619000      20.89380000      24.27860000        0
Cl       7.88245000      18.86050000      18.37590000        0
H        9.30580000       5.57134000      20.69410000        0
H        9.68757000      18.85160000      22.42820000        0
C        0.24999700      13.35190000      23.21610000        0
C       36.36750000      13.42020000      23.28310000        0
C        5.47762000      18.36210000       6.57751000        1
C        6.95968000      16.35190000       6.01470000        1
Cl      34.19200000      20.09370000       4.59858000        0
H       10.89180000      14.30670000      21.50520000        0
C        3.30893000      20.39530000       7.82748000        0
C        2.42944000      21.09730000       7.25504000        0
C        3.35762000      18.04970000       8.30332000        0
C        3.14528000      19.37700000       8.69297000        0
Cl       2.94836000      23.73470000       8.89968000        0
Cl      37.07070000       2.50238000       4.89038000        0
H        1.18633000      20.83110000       7.72367000        0
H       34.91160000       1.99131000       5.18240000        0
C       36.09530000      23.68130000       6.13424000        0
C       35.69040000      25.07950000       6.21545000        0
C       36.53390000      26.19730000       6.86605000        0
C       35.21950000      27.11680000       6.95157000        0
Cl       8.62063000      24.56370000       4.57173000        0
C        0.19423500      20.22390000      13.19720000        0
C        1.13543000      21.24310000      12.78250000        0
C       35.66830000      19.27920000      13.35860000        0
C       36.72350000      20.08270000      12.89920000        0
H       33.82020000      14.56780000      17.22530000        0
H       36.32170000      20.75280000      12.13630000        0
C        1.21836000      19.03180000      18.95110000        1
C        0.55951800      18.92260000      17.62950000        1
C        0.29595400      20.03150000      16.71050000        0
C       37.20230000      20.96010000      16.69910000        0
Cl       0.20745100      19.41030000      20.28130000        0
H        8.51630000       9.37412000      18.09710000        0
C       32.95930000      26.21360000       1.82504000        0
C       32.41690000      25.54800000       0.91404400        0
C        8.50238000       4.77511000      22.45320000        0
C       33.95360000      26.63870000       2.53505000        0
Cl      37.19520000       0.93721200      24.23100000        0
Cl      10.07810000       4.60637000      23.25960000        0
H        5.36406000      19.53830000       6.60763000        0
H        5.41220000      14.00030000      24.07300000        0
C        6.56552000      17.75900000       5.69529000        1
C        7.15074000      18.12430000       4.52007000        0
C        6.67767000      19.33020000       3.91461000        0
C        7.61686000      19.57840000       2.91747000        0
Cl       4.53728000      21.63050000       1.02642000        0
C        2.85477000      23.53430000       4.08290000        0
C        4.00229000      23.84320000       3.36847000        0
C        2.75718000      22.17800000       6.19918000        0
C        2.55242000      22.88980000       5.19161000        0
Cl       1.25435000      23.70700000       3.22544000        0
Cl       2.55643000      19.43990000      10.47870000        0
H       36.26510000       4.10532000      24.07530000        0
H       10.09380000       2.97003000      20.41210000        0
C       35.59930000       0.49601900       7.96892000        0
C       34.53900000       1.05310000       8.95332000        0
C       34.11720000       2.19945000       9.49616000        0
C       34.64470000       3.65683000       9.19950000        0
Cl       5.11981000      23.47710000      11.65060000        0
Cl      33.25400000       2.34079000       3.56477000        0
Cl       0.27537900       1.38130000      20.23830000        0
H       11.51780000      23.01540000      25.21390000        0
C        3.05328000      26.74880000       8.50050000        0
C        3.04785000      27.45820000       7.45511000        0
C        2.38925000      21.12780000      13.56790000        0
C        3.09050000      25.58120000       9.20219000        0
Cl      31.09610000      18.34870000      15.47520000        0
H        3.19671000      25.48510000      10.26110000        0
C       37.06790000      22.30020000      16.13150000        0
C        0.11187400      22.87080000      15.19610000        0
C        0.88208800      23.88350000      14.86270000        0
C        2.04995000      24.56480000      14.40440000        0
Cl      11.22930000       2.93976000      19.98480000        0
C       37.20720000       4.28269000       0.62142100        0
C        7.37260000       6.67842000       3.62795000        0
C       36.09540000       2.42151000      24.90870000        0
C       36.87310000       3.72432000      24.83190000        0
H        5.08798000      26.16610000      24.04330000        0
C        8.31929000      20.90900000       2.15839000        0
C        8.18876000      22.30870000       2.20220000        0
C        7.09436000      22.98090000       2.90062000        0
C        6.36143000      23.55970000       3.59683000        0
H       35.51180000      16.54450000      13.40620000        0
C        7.06802000      27.33630000       5.81850000        0
C        7.10953000       1.29309000       6.29359000        0
C        5.50264000      25.55640000       4.67356000        0
C        6.02283000      26.75400000       4.82383000        0
Cl       8.15947000      24.10980000      12.43540000        0
H        0.94322300       3.97552000       5.22415000        0
C       34.21430000       4.59328000       9.94825000        0
C       34.26230000       5.90067000      10.30600000        0
C       34.87060000       6.97140000      10.77030000        0
C       35.42550000       8.14669000      10.25310000        0
H       35.87350000       8.99825000      10.80950000        0
C        0.93313800       2.84688000       5.22700000        0
C        1.40627000       1.37251000      10.61020000        0
C        2.60388000       1.18838000       6.59316000        0
C        1.61995000       1.87369000       5.92036000        0
Cl      30.12660000      18.46850000      11.56620000        0
Cl      37.89070000      26.57200000       5.64559000        0
H        2.46706000       1.44961000      10.08910000        0
C        2.45958000      25.90750000      14.34910000        0
C        3.08458000      27.22440000      14.85860000        0
C        2.46693000       0.55140300      15.85000000        0
C        2.50848000       1.96971000      15.30160000        0
Cl      11.85540000      11.37740000      16.10050000        0
Cl      17.43620000      20.05080000      15.14140000        0
H        2.03884000       0.28448200      16.90540000        0
C        7.49175000       8.99215000       6.53286000        1
C        7.36537000      10.24540000       6.98597000        1
C        7.44531000       7.47917000       4.88718000        0
C        7.05240000       8.72534000       5.08149000        1
Cl      36.03800000      10.73560000      18.25500000        0
H        5.56862000       3.28997000       4.62260000        0
C        5.20732000      24.53130000       3.84882000        0
C       36.27560000       9.10142000      18.63670000        0
C       37.02190000       8.81124000      19.86880000        0
C        0.15694800       9.60477000      20.31240000        0
Cl       5.85896000      21.62560000       8.92490000        0
H       33.38770000       5.62857000       5.50530000        0
C        4.84405000       4.46319000       7.88802000        1
C        4.19374000       5.46712000       8.45555000        0
C        5.74342000       3.33045000       5.66842000        1
C        4.88613000       4.24058000       6.41429000        1
H        4.92245000       9.54309000      25.12350000        0
H        4.48457000       4.90624000       5.71442000        0
C       35.09100000       9.09539000       9.17954000        0
C       35.10400000      10.48980000       9.48913000        0
C       35.79690000      10.93420000      10.52770000        0
C       36.02590000      11.74360000      11.37670000        0
Cl      34.27140000       8.52135000       7.67228000        0
H        9.22451000       1.89377000       9.83265000        0
C       36.60990000       3.82714000      12.12830000        0
C       36.49730000       5.21013000      12.12480000        0
C        0.49089000       2.55342000      10.80490000        0
C       37.68320000       2.76037000      11.86960000        0
Cl      32.88330000       2.20627000      10.85260000        0
Cl      32.88890000       7.78290000      24.63820000        0
H       37.69630000       1.75200000      12.16590000        0
C        1.76041000       2.96108000      16.12640000        0
C        0.95501300       3.75400000      16.52970000        0
C        0.09702260       4.73110000      16.56260000        0
C       37.24000000       5.22586000      17.46040000        0
C        6.62162000      13.11220000       3.34370000        1
C        5.53014000      13.80230000       2.79685000        1
C        7.18191000      11.30810000       5.94326000        1
C        7.54766000      12.65040000       6.10196000        1
C        0.29794100      10.94040000      20.20900000        0
C        0.84857200      12.02950000      20.57130000        0
C        1.93820000      12.74160000      20.65790000        0
C        2.94641000      12.97280000      19.77910000        0
Cl       5.96577000      18.60380000      11.36810000        0
H        8.09369000      14.45960000      19.57580000        0
C        3.13558000       8.36630000       9.80812000        1
C        4.37864000       9.13247000       9.91691000        1
C        4.58294000       6.25194000       9.47810000        0
C        3.51915000       7.06095000      10.05910000        0
H       11.42830000       3.92949000       8.65606000        0
C       36.95450000      12.41080000      12.09380000        0
C       37.57100000      13.60260000      12.48070000        0
C       37.81210000      14.71140000      11.69670000        0
C       36.60150000      15.38740000      11.05140000        0
C       34.65700000       8.01777000      13.34980000        0
C       35.66930000       9.03624000      13.66020000        0
C       35.18790000       5.44967000      12.53440000        0
C       34.53280000       6.55311000      12.98280000        0
C       36.58320000       5.91043000      18.46730000        0
C       36.72600000       6.42258000      19.66300000        0
C       37.07230000       7.48951000      20.29580000        0
C        0.50180400       7.43230000      21.01450000        0
Cl       2.55605000       9.18491000      20.58560000        0
H        2.62529000       5.18594000      22.94140000        0
C        4.41733000      12.87670000       2.46368000        1
C        4.43071000      11.56390000       1.96006000        1
C        4.53464000      14.94930000       2.80815000        0
C        3.44778000      14.02210000       2.61691000        0
Cl       1.22976000      13.34040000      10.11140000        0
H       36.66800000      19.63220000      24.03980000        0
C        3.57640000      14.16860000      19.77500000        0
C        2.77873000      15.01870000      20.85620000        0
C        1.93002000      14.10340000      21.55160000        0
C        0.97006300      14.39720000      22.53140000        0
Cl       4.54399000      14.83180000      18.68820000        0
Cl      36.02620000       2.64531000      16.33240000        0
H        3.47607000       9.71347000      24.39790000        0
C        5.70545000      12.52340000       9.51406000        1
C        4.75541000      13.50970000       9.54127000        1
C        4.47499000      10.46930000      10.59420000        1
C        5.72993000      11.12290000      10.17610000        0
Cl      11.50190000      14.47680000      24.82170000        0
Cl       1.72816000      13.75490000       2.87363000        0
C       36.52240000      16.89700000      10.71840000        0
C       35.46630000      17.75590000      11.02590000        0
C       34.96600000      18.90790000      10.27610000        0
C       34.30690000      18.84640000       9.17304000        0
H       34.90020000      17.46290000      11.91140000        0
H       34.94670000      19.86650000      10.84070000        0
C       35.55640000      12.49600000      14.62720000        0
C       35.78240000      13.77490000      14.84660000        0
C       35.11520000      10.19650000      14.13890000        0
C       36.11060000      11.19190000      14.49430000        0
Cl       0.36893800       3.52112000       9.27970000        0
C        0.95470800       8.68492000      20.92910000        0
C        2.24520000      19.83840000      14.32190000        0
C        0.97469900      19.48500000      14.29600000        0
C        0.78922000      19.23530000      15.59260000        0
C        4.66158000      18.03570000      22.17880000        0
C        7.72129000      19.30860000      19.92970000        0
C        3.80991000      11.24380000       0.69463900        0
C        4.62083000      16.70700000      21.51510000        0
Cl       6.01069000      18.94190000      23.25950000        0
Cl       3.29751000      18.92770000      22.40070000        0
C        3.53538000      15.93860000      21.48730000        0
C        2.77558000      12.02870000       0.25840800        0
C        1.72962000      12.04830000      24.95660000        0
C        1.03003000      12.76300000      24.00060000        0
H       36.33060000      12.86690000      24.20710000        0
C        4.71542000      16.24230000       7.16907000        1
C        4.38925000      17.68410000       7.21828000        1
C        4.89410000      14.37770000       8.34144000        1
C        4.18623000      15.68300000       8.44461000        0
Cl      10.53600000      23.80380000       8.35492000        0
H       34.13480000      24.48110000       2.28708000        0
C       33.77460000      19.96490000       8.44029000        0
C       34.72540000      20.78230000       7.75523000        0
C       36.14600000      21.38140000       7.53871000        0
C       36.18280000      22.61980000       6.69731000        0
Cl      32.36580000      19.76480000       7.70802000        0
H       34.33860000      21.51650000       6.92720000        0
C       35.36160000      17.37670000      14.97630000        1
C       35.86760000      18.68390000      14.49230000        0
C       36.01070000      15.13270000      15.29070000        1
C       35.62480000      16.19020000      14.42410000        1
Cl       2.15956000      14.49980000      16.93650000        0
H       34.39710000      17.79450000       8.74498000        0
H       34.51710000      19.29660000      13.18190000        0
C        8.89413000       8.55750000      19.67550000        0
C       10.18700000       9.55867000      19.60630000        0
C       10.28430000      10.75570000      18.90750000        0
C       10.25190000      12.04560000      16.68100000        1
Cl       5.92535000      22.24740000      17.76300000        0
H       10.74790000      12.97840000      17.09910000        0
C       12.66030000      13.26960000      24.24680000        0
C       14.12690000      13.40630000      23.98290000        0
C       12.60580000      11.50000000       0.90164200        0
C       12.71210000      11.84950000      24.83080000        0
Cl      14.72140000       9.61837000       9.68165000        0
Cl      10.29850000      20.29940000      20.00160000        0
H       12.05910000      12.94810000      23.27110000        0
H        7.67274000       5.44158000      20.55180000        0
H       13.02510000       7.37442000       2.09685000        0
C        9.43850000      20.47960000       1.58614000        0
C       11.19660000      21.95300000       0.35719800        0
C       10.34660000      21.70640000       1.54168000        0
C        9.40795000      22.85740000       1.96663000        0
Cl      10.70050000      18.08500000       1.33181000        0
Cl      13.66700000      24.64320000       0.58550400        0
H       12.32500000      21.51530000       0.53705100        0
H       18.79180000       6.82937000      25.17720000        0
C       12.34720000       2.32750000       0.13653000        0
C       13.20540000       3.54538000       0.74031000        0
C        9.04960000      13.70800000       2.75808000        0
C        9.12493000      15.17560000       2.94294000        0
Cl      12.31780000       2.22000000      23.86180000        0
Cl      10.67780000       2.76467000       0.56050900        0
H       14.21580000       3.47662000       0.32107100        0
H        7.65016000      16.05160000       6.78484000        0
C        9.71707000      22.40250000       9.28365000        1
C       10.16010000      21.43130000      10.17400000        1
C        9.30543000      20.38170000      10.53060000        1
C        7.89501000      20.69820000      10.36220000        1
Cl       6.71833000      15.66850000      11.28780000        0
H        7.07365000      20.07210000      10.90490000        0
C        5.51968000      18.58150000      13.07490000        0
C        5.23643000      19.68110000      13.52960000        0
C        5.66102000      16.17390000      12.65860000        0
C        4.95604000      17.29130000      13.37790000        0
Cl      37.41200000      25.36890000       8.47210000        0
H        9.20782000      18.95660000      14.76780000        0
H        1.05057000      21.75430000      11.92880000        0
H        4.62937000      16.71660000      14.09480000        0
C        9.77629000      11.21020000      17.65180000        1
C        8.74848000      10.37040000      17.33570000        1
C        8.08346000      10.35490000      16.09920000        1
C        7.99620000      11.57000000      15.33140000        1
Cl       6.67636000      10.65270000      19.10480000        0
Cl       7.73965000       8.70250000      15.60540000        0
H        7.89519000      11.55450000      14.29270000        0
C       13.82490000      10.25900000      23.39930000        1
C       14.41960000       9.89983000      22.26740000        1
C       14.99600000      12.23220000      24.21180000        0
C       14.17740000      11.18010000      24.42640000        0
Cl      11.34770000       7.69000000      24.46250000        0
Cl       7.23488000       3.84978000      23.11040000        0
H        7.96165000       2.43831000       5.03480000        0
H       14.66700000      10.45230000      25.15490000        0
C        9.22451000      23.98070000       1.27268000        0
C        9.86389000      25.03740000       0.58584000        0
C        6.78983000      23.64220000      25.00640000        0
C        7.91800000      24.20280000       0.28579500        0
Cl       2.46623000       6.31415000       2.22479000        0
H       14.98190000      20.51030000       3.70157000        0
H        7.54658000      15.14560000       0.10129300        0
C       11.77430000       4.56076000       2.95105000        0
C        7.36870000       0.50865600       1.40814000        0
C       12.50750000       3.92355000       2.03908000        0
C       10.77330000       5.65394000       2.97699000        0
Cl      12.41580000       6.35298000      21.59640000        0
H        6.43811000      22.64850000       0.09621390        0
C        7.57285000      21.67960000       9.45859000        1
C        8.37782000      22.64170000       9.04441000        1
C        8.08782000      23.77550000       8.03164000        0
C        8.71039000      24.39970000       7.16842000        0
Cl       9.81051000      18.98590000      11.16950000        0
C        3.75808000      23.03950000      12.79470000        0
C        3.04836000      24.06320000      13.47580000        0
C        4.94020000      20.88850000      13.73810000        0
C        3.68703000      21.68500000      13.20070000        0
Cl       6.53819000      24.49560000       8.27937000        0
Cl       8.53911000      19.83780000      15.39310000        0
H        4.11401000      27.10750000       6.90753000        0
C        9.14240000      12.48480000      15.83100000        1
C        9.59043000      13.74960000      15.37040000        0
C       10.53050000      14.65200000      15.80720000        0
C       11.44640000      14.69170000      16.93160000        0
Cl      17.44330000       6.84316000      16.85260000        0
C       11.49470000      16.48520000      20.73570000        0
C       12.64950000      17.16540000      20.12830000        0
C       15.25270000       9.98527000      21.18400000        1
C       11.44270000      15.11550000      20.67720000        0
Cl       0.80534800       2.85974000       2.22524000        0
Cl       4.96774000      17.60180000      18.38340000        0
H       14.98230000      21.22410000      21.25030000        0
C        8.93718000      25.25600000      25.09770000        0
C        8.86983000      25.93400000      23.95690000        0
C        7.98277000      25.65640000      22.98770000        0
C        7.58111000      26.41740000      21.96820000        0
Cl       4.73977000      26.28980000      19.28070000        0
H        9.63393000      26.58810000      23.58620000        0
C        8.35356000       2.87493000       4.05415000        0
C       10.50420000       3.82979000       6.66689000        1
C        7.24844000       1.33596000       2.43871000        0
C        7.93746000       2.58819000       2.79855000        0
Cl       5.69507000       1.41413000       2.96102000        0
H       11.28070000       3.41950000       6.03017000        0
H        6.09603000       5.75730000       2.12831000        0
C        8.58573000      25.27430000       6.16211000        0
C        8.31627000      26.66750000       6.30059000        0
C        8.83958000      27.46790000       7.42164000        0
C        8.03141000       1.09301000       7.41110000        0
Cl      10.34720000      27.38820000       8.18857000        0
H       14.88370000      22.36360000      11.33150000        0
C        4.05542000       0.10475900      13.67840000        0
C        2.97646000       2.72400000      14.03870000        0
C        3.47624000      25.44650000      13.32820000        0
C        4.40363000      26.34350000      13.05370000        0
Cl       1.14582000       0.00978935      11.32960000        0
H        5.22402000      26.43630000      12.32960000        0
C       11.65490000      14.85220000      18.13930000        0
C       12.14260000      15.09020000      19.43920000        0
C       13.26300000      16.21050000      19.29440000        0
C        1.39056000      17.80150000       3.34420000        0
Cl      12.08080000      18.11250000      17.06730000        0
H        2.63431000       3.92529000      14.12060000        0
H        1.22089000      18.08680000       2.36920000        0
H        0.78278900      16.91850000       3.67721000        0
C       13.94070000      20.76750000      20.71820000        0
C       13.24500000      21.83870000      19.93110000        1
C       13.25750000      18.43830000      20.34120000        0
C       13.73260000      19.53900000      20.57430000        0
Cl       5.89838000      21.80980000      14.84730000        0
C        3.03998000       3.21792000      24.33950000        0
C        3.36131000       3.48437000       0.07775570        0
C        4.14523000       4.30684000       0.77727900        0
C        4.44055000       5.14437000       1.50409000        0
Cl       8.32327000       0.25444900      21.14430000        0
Cl      13.29860000       0.73877700       1.02009000        0
C        9.20262000       6.08766000       7.76065000        1
C        8.76084000       5.64676000       6.43098000        1
C       10.57320000       4.10273000       8.09226000        1
C        9.98337000       5.31738000       8.60196000        1
Cl      14.80780000       1.21851000      14.83490000        0
Cl      36.12460000       6.06603000       0.81279200        0
H        9.88994000       5.69313000       9.64777000        0
C        7.84894000       2.22810000       8.22962000        1
C        8.48684000       2.54496000       9.57111000        1
C        8.10714000       1.84344000      12.75040000        0
C        7.42399000       2.47747000      11.82240000        0
H       37.23920000      27.27040000       1.74166000        0
C        5.84358000       2.36382000      12.14950000        0
C        4.83825000       1.38531000      13.87320000        0
C        3.77787000       2.29533000      13.06690000        0
C        4.35436000       2.68126000      11.87340000        0
Cl       9.33042000       2.35872000      17.40230000        0
H       37.19320000       6.05749000      12.04410000        0
H        3.94777000       3.55916000      11.03620000        0
C        2.19451000      18.52850000       4.15535000        0
C       37.13970000       2.53834000      20.70200000        0
C       37.70370000       3.87896000      20.83840000        0
C        0.34571200       5.01233000      21.12240000        0
Cl       2.21818000      18.39730000       5.83895000        0
Cl       2.69377000      20.10400000       3.52049000        0
H       35.36840000       2.45294000      24.31710000        0
C       12.11660000      23.61050000      17.78930000        1
C       12.79320000      23.98470000      18.93280000        1
C       13.30890000      23.25750000      20.03120000        1
C       13.36970000      23.95310000      21.20850000        0
Cl      37.21680000       8.97987000      13.25760000        0
H       12.24040000      20.17540000      12.95730000        0
C        4.18526000       6.27506000       2.45223000        0
C        5.05216000       7.30631000       2.96639000        0
C        6.20938000       6.42113000       3.01731000        0
C       37.65860000       4.08865000       1.83151000        0
Cl      20.12270000       4.47571000       4.30650000        0
Cl       8.74193000       0.79230500       0.26506300        0
H       16.05160000      24.62560000       4.14367000        0
H       37.51960000       4.73722000       2.93304000        0
H        3.11254000       5.69514000       8.22765000        0
C        9.54410000       5.27739000       3.15342000        0
C        8.66617000       6.31626000       3.06785000        0
C        9.41605000       4.49090000       5.78514000        1
C        9.30328000       3.97968000       4.26400000        0
Cl       7.83486000       3.85086000       1.58609000        0
C        7.62691000       3.05150000      10.42500000        1
C        6.60653000       3.96981000       9.98279000        1
C        6.85579000       5.20644000      10.54290000        0
C        5.97245000       6.39096000      10.03570000        0
Cl      11.17280000       3.76648000      13.96290000        0
C        4.78727000       4.55909000      14.69300000        0
C        4.48780000       5.75656000      14.69210000        0
C        5.05736000       2.08691000      15.08400000        0
C        5.22054000       3.47059000      15.46320000        0
Cl       2.26334000       7.01702000      17.89660000        0
Cl      17.92100000       1.77493000      13.20540000        0
H        1.09086000       7.41796000      17.51520000        0
C        1.07556000       6.25161000      21.51300000        0
C        2.25450000       6.26218000      22.31390000        0
C        3.48476000       6.42835000      21.86200000        0
C        4.81437000       6.40985000      21.46530000        0
Cl       2.58441000      10.48410000      14.93940000        0
H        4.67445000       4.96497000      19.88150000        0
C       12.44520000      26.18170000      21.45240000        0
C        9.23591000       7.27272000       2.36602000        0
C       12.88050000      25.31790000      19.24770000        0
C       13.08880000      25.28170000      20.57890000        0
Cl      12.25190000       0.38409700      20.63760000        0
Cl       8.10437000      12.63070000      23.63940000        0
H       10.84650000      25.64880000       0.60604000        0
C        3.25960000      10.96830000      11.26800000        1
C        1.98774000      10.49230000      10.94150000        1
C        1.76336000       9.09877000      10.27350000        1
C        0.57733300       8.18765000      10.42730000        0
Cl       3.08038000      12.25940000      12.31490000        0
H        1.37749000      11.00120000      11.57350000        0
H       11.91000000      11.82770000       7.29101000        0
H       37.75240000       8.62748000      11.06500000        0
C        8.70864000       7.56222000       8.24459000        0
C        9.26279000       8.69229000       9.00987000        0
C        8.15649000       6.90015000       5.90438000        0
C        8.15122000       7.79109000       7.06224000        0
C        6.62587000       7.51910000       9.77128000        0
C        5.67778000       8.66854000       9.41732000        0
C        6.35703000      10.13480000       9.11428000        0
C        7.09693000      11.02740000       8.21281000        1
Cl       4.48196000       8.26947000      13.12290000        0
Cl       1.52267000      15.82520000      14.91730000        0
H        9.79074000       5.93028000      15.09240000        0
H       10.12790000       9.25304000       8.63662000        0
C        4.72436000       9.24984000      15.86810000        0
C        4.21905000      10.40860000      15.63320000        0
C        4.41575000       7.11035000      14.83920000        0
C        4.51447000       7.85155000      16.07280000        0
Cl      37.64010000      10.78160000      14.98680000        0
H        4.13508000       7.49451000      17.16690000        0
C        5.56397000       7.62479000      21.28830000        0
C        6.42270000       8.37951000      20.52570000        0
C        7.37646000       9.16877000      19.71230000        0
C        8.73026000       7.33397000      19.10630000        0
H       17.80670000      10.21380000      15.16480000        0
C       11.88460000       9.18199000       1.91531000        0
C       12.07770000      10.43760000       1.57955000        0
C       10.60120000       7.03045000       2.27222000        0
C       11.93120000       7.81256000       1.99529000        0
H        6.75862000      18.80480000      20.49730000        0
C        8.47553000      16.27170000       3.32826000        0
C        8.16497000      17.56430000       3.48463000        0
C        8.53750000      18.59050000       2.61417000        0
C        9.41349000      18.97690000       1.67588000        0
C        8.32791000      13.19860000       5.05256000        0
C        8.08359000      13.24970000       3.71595000        0
C        8.63881000       8.73716000      10.27270000        0
C        7.51284000       8.18145000      10.64160000        0
Cl      14.74390000      17.72890000       2.98192000        0
Cl      15.96280000       8.48645000      23.99040000        0
Cl       2.80356000       5.88427000      11.41470000        0
H        7.42006000       8.07643000      11.77040000        0
H       17.28440000       6.15012000      24.66580000        0
C        6.57720000      12.46860000       8.26694000        1
C        6.76898000      13.30360000       7.32661000        1
C        5.79804000      14.29170000       7.24035000        1
C        5.70828000      15.56950000       6.46600000        1
H       13.08200000      22.77300000       8.73560000        0
H       11.16560000      21.74830000      10.44960000        0
C        5.67035000      13.93500000      13.85050000        0
C        5.22793000      14.99190000      13.16630000        0
C        4.98178000      11.56820000      14.97950000        0
C        5.38151000      12.66220000      14.72320000        0
Cl       8.55236000      14.08790000      14.01120000        0
H       36.35670000      19.37110000      15.11700000        0
C       15.19140000      11.74290000      13.58710000        0
C       14.45750000      12.80110000      13.36020000        0
C        4.86443000      21.85650000      18.98400000        0
C        3.78867000      21.06570000      18.78380000        0
Cl      12.64950000       8.19046000       9.84500000        0
Cl       7.82605000      10.07830000      25.12120000        0
Cl       5.23660000      22.48440000      20.63440000        0
H       15.09710000      13.67980000      13.86870000        0
H        3.12252000      20.81730000      19.64470000        0
H        3.47870000      20.33660000      17.94280000        0
C        8.89723000      11.30230000      24.49680000        0
C       14.79790000      16.08120000      18.90250000        0
C       11.58330000      10.81000000      24.25000000        0
C       10.20450000      11.17890000      24.31960000        0
H       15.02760000      15.06090000      18.78070000        0
H       13.16900000      12.20990000       1.56785000        0
C       17.17180000       8.33813000      25.12820000        0
C       17.67000000       6.94855000       0.20660500        0
C       14.10730000      23.78470000       1.83331000        1
C       13.07590000      22.98550000       2.51477000        1
H       17.23460000      17.93370000       5.92291000        0
H       12.03390000      23.25880000       2.28719000        0
C       14.88920000      20.12960000      10.21500000        0
C       14.38460000      20.11800000      11.50310000        0
C       14.19690000      18.65940000       8.47121000        0
C       14.97250000      18.76770000       9.63371000        0
H       15.62390000      17.81930000      10.05890000        0
C        9.20017000      12.10580000      11.43240000        0
C        9.31792000      12.78500000      10.32260000        0
C        9.25164000      14.02900000       9.78422000        0
C        9.09158000      14.92900000       8.80758000        0
H        9.37309000      12.35910000       9.32381000        0
H       23.59100000      17.69520000       7.76628000        0
H        7.70734000      21.54740000      19.11070000        0
C       15.30520000      16.25180000      13.18300000        0
C       15.84310000      16.70140000      14.09320000        0
C       13.43840000      15.39280000      11.38660000        0
C       14.84300000      15.89460000      11.79570000        0
Cl      12.02520000      15.36750000      12.27670000        0
C       14.39520000      20.39750000      16.29510000        0
C       13.00720000      20.93070000      15.82220000        1
C       11.92780000      21.68900000      16.33040000        1
C       12.24930000      22.12750000      17.61680000        1
Cl      15.54990000      20.98900000      17.65320000        0
Cl      20.75570000      18.71220000      22.04310000        0
H       17.72460000      21.72020000       0.92499200        0
H       13.77280000      23.64650000      22.17860000        0
C       17.36430000      18.61190000      20.24420000        1
C       17.99560000      19.97350000      20.23100000        0
C       16.19910000      16.64250000      19.52140000        1
C       16.33220000      17.87660000      19.43090000        1
Cl      11.95530000      20.79830000      22.45180000        0
Cl      10.28190000       6.66293000      18.61390000        0
H       15.98880000      18.57840000      18.58440000        0
C       13.45540000      21.60920000       3.08325000        1
C       14.85770000      21.32460000       3.27087000        1
C       15.90000000      22.30850000       2.93169000        1
C       15.43650000      23.70110000       2.36425000        1
H       14.54190000      19.32340000      12.17650000        0
C       12.09240000       0.26052800       4.72951000        1
C       12.42070000       1.55383000       4.64351000        1
C       13.78880000      26.89820000       5.94761000        1
C       12.51800000      26.64510000       5.23860000        1
Cl      10.51060000       0.10627300       3.85118000        0
Cl      14.29190000      25.81050000       7.46053000        0
H       11.81930000       2.23100000       4.24409000        0
H        6.74376000      27.27680000       0.87019500        0
H       12.39460000      25.66040000       5.40260000        0
C        9.45518000      15.94790000       8.02995000        0
C       10.01250000      16.52730000       7.05254000        0
C       10.34650000      17.84250000       6.54447000        0
C        9.56232000      19.05990000       6.76439000        0
Cl      10.22470000      16.16200000      14.82110000        0
Cl       2.22200000       8.72904000       5.02563000        0
H        3.91702000      13.85710000      10.20210000        0
H       18.85850000      24.42220000      11.77300000        0
H       10.80790000      22.59240000      12.22190000        0
C       14.88480000      19.61090000      15.26020000        0
C       13.59700000      19.07610000      14.68510000        0
C       16.70570000      17.61910000      14.67770000        0
C       16.21240000      18.86530000      15.03210000        0
Cl      16.14380000      15.54110000      10.80860000        0
Cl       8.23214000      15.21680000      18.50060000        0
Cl       8.42044000      22.63210000      18.74240000        0
H       13.46080000      18.17930000      13.97260000        0
H       12.80180000      26.35890000      18.84030000        0
C       12.62540000      21.39270000      18.61190000        1
C        9.18317000      24.15500000      15.46110000        1
C        8.79535000      25.41350000      15.80020000        1
C        7.94287000      26.07810000      14.92430000        0
Cl       7.66996000      15.80850000      24.25200000        0
Cl      23.14720000      20.57140000      16.82650000        0
H        8.78513000      23.88790000      14.58240000        0
H       14.39900000      19.22640000       0.20489500        0
C       18.61640000      23.22410000      18.43090000        0
C       18.15640000      24.49130000      18.66310000        0
C       17.84670000      20.92320000      19.35340000        0
C       18.42260000      22.08230000      19.14620000        0
Cl      17.38190000      25.13990000      21.53840000        0
Cl      10.14470000      25.33590000      19.32390000        0
Cl      12.56200000       7.54074000      17.43110000        0
H       16.54650000       0.26146000      24.14980000        0
C       17.22180000      22.46080000       3.05148000        0
C       17.82530000      23.77240000       2.63653000        0
C       16.65220000      24.55230000       2.09581000        0
C       16.82600000      25.78920000       1.78321000        0
Cl      16.58090000      27.02430000      23.06730000        0
Cl      16.43430000      22.38550000       6.59563000        0
Cl       1.76053000       2.94996000      23.26660000        0
H       15.74520000      26.26870000       1.43242000        0
C       13.41290000       2.37238000       9.85712000        0
C       14.52450000       2.85119000       9.35950000        0
C       13.72670000       1.91728000       5.32349000        1
C       14.48490000       0.60588300       5.80624000        1
Cl      12.33840000       3.49086000      10.69920000        0
Cl      14.42400000       3.29517000       5.96028000        0
H       15.64730000       2.70743000       9.21895000        0
H       15.55010000       0.64650200       6.04023000        0
C        9.72864000      20.26170000       5.99517000        0
C       10.43520000      20.48390000       4.90902000        0
C       11.42980000      20.77620000       4.23660000        0
C       12.29620000      20.87730000       3.22084000        0
Cl       8.11130000      21.31270000       5.61884000        0
H       12.27720000      19.86680000       2.71232000        0
C       10.91220000      21.67360000      14.24860000        1
C       10.67930000      22.05690000      15.63760000        1
C       12.49850000      20.01170000      14.92220000        1
C       11.71110000      20.66450000      13.90090000        1
Cl      12.69110000      12.13690000      13.22260000        0
C        7.75294000      25.72950000      13.48740000        0
C        7.67611000      26.76540000      12.70080000        0
C        7.64906000       0.54577300      13.36790000        0
C        7.64148000       0.06784000      14.76060000        0
Cl       7.81666000      26.59990000      10.86180000        0
Cl      18.06830000      25.25130000       6.93272000        0
C       16.88790000      27.40960000      18.67270000        0
C       15.95480000       0.90101100      18.95360000        0
C       17.81010000      25.25800000      19.73940000        0
C       16.81770000      26.28980000      19.35360000        0
H       15.50090000       0.28911100      19.67480000        0
H       16.07510000      26.61370000      20.30600000        0
C       17.58030000      26.68950000       1.22030000        0
C       18.98580000      26.60390000       0.77475900        0
C       19.39460000       0.29873400       0.06863400        0
C       17.28050000       0.66171400       0.93220200        0
H       18.73080000      23.38790000       1.80605000        0
H       17.54230000       2.79931000       9.39759000        0
H       16.40840000       1.29672000       0.95456700        0
C       16.26280000       4.43416000      10.52660000        0
C       13.40520000       4.78163000       8.35991000        0
C       14.34040000       4.15269000       9.14049000        0
C       15.54080000       4.96374000       9.55518000        0
Cl      16.54150000       5.65230000       8.34730000        0
H       20.27140000      26.49620000      11.42350000        0
C       16.00620000       2.81979000      16.52010000        0
C       16.19730000       2.46769000      15.35380000        0
C       17.05950000       2.91011000      14.09370000        0
C       16.97420000       4.49016000      11.76760000        0
Cl      20.55160000       1.81413000      15.27910000        0
C       10.22710000      25.27220000      17.41280000        1
C        9.35241000      26.15080000      16.79070000        1
C       10.34940000      23.57790000      15.97780000        1
C       11.16400000      24.31630000      17.00730000        1
H        8.82611000      26.67820000      17.54420000        0
C        6.65882000       0.58952600      15.49300000        0
C        6.01914000       1.35768000      16.24710000        0
C        5.85302000       2.18485000      17.39680000        1
C        5.93689000       1.94571000      18.64610000        1
H       20.53870000       1.10709000      19.01500000        0
H        6.23254000       0.92216200      19.08400000        0
C       15.18360000       4.59990000      17.80750000        0
C       13.97310000       5.33157000      17.46410000        0
C       15.36930000       2.33076000      18.76710000        0
C       15.74280000       3.22511000      17.74190000        0
Cl      10.17670000      17.26320000      21.24970000        0
H       12.32580000      20.29000000      18.52790000        0
C       18.55530000       1.29794000       0.80705300        0
C       18.83160000       2.73217000       0.96713600        0
C       17.86210000       3.68092000       1.68041000        0
C       18.17770000       4.91033000       1.90758000        0
Cl      17.78350000       3.25566000      22.40320000        0
Cl      15.54930000       8.16871000       5.84330000        0
H       19.76400000       2.34524000       4.85272000        0
C       12.04640000       7.68533000       6.45586000        0
C       12.25900000       8.64316000       5.47616000        0
C       13.09620000       6.01717000       7.93947000        0
C       12.53480000       6.75316000       6.93297000        0
Cl      16.18160000      10.63240000       8.45682000        0
Cl      11.61300000      13.92230000       8.48202000        0
H       15.29360000       7.15823000       4.83037000        0
C       16.19180000       4.06484000      13.15470000        0
C       14.95000000       4.28272000      13.34270000        0
C       13.92510000       4.90592000      13.60210000        0
C       12.91490000       5.94326000      13.88020000        0
Cl       4.49562000      16.38800000       3.58783000        0
H       12.00660000       0.84021200      17.17280000        0
H       13.29870000       7.03298000      14.14220000        0
C       19.34780000      12.13910000      16.87650000        0
C       19.93790000      11.44310000      15.64790000        0
C       17.12780000      11.59900000      18.16860000        0
C       18.50630000      11.72850000      18.03730000        0
Cl      21.11050000      12.63970000      13.40910000        0
H       19.48580000      10.59670000      15.40650000        0
H        7.73468000       6.96919000      19.03760000        0
C        5.05031000       2.81384000      19.39700000        1
C        5.04301000       4.14840000      19.01490000        1
C        5.45759000       4.41874000      17.82270000        1
C        5.55438000       3.50818000      16.88490000        1
Cl       5.63440000       2.77483000      20.96280000        0
Cl      11.23230000      25.95480000      22.57120000        0
Cl      21.64060000      14.99160000      15.62690000        0
Cl       6.38569000       5.86213000      17.34890000        0
H       17.39930000       7.02087000      20.77690000        0
H       10.32020000       2.80058000      17.74190000        0
C       15.52020000       8.52271000      19.15020000        1
C       14.80290000       8.80909000      20.58130000        1
C       13.99880000       6.73613000      18.01700000        0
C       15.21120000       7.18399000      18.47920000        0
Cl      35.51240000       2.47802000      21.05010000        0
H        8.87757000       8.13437000       1.90855000        0
H       15.55140000       9.64228000      17.26490000        0
C       17.86150000       6.19432000       2.48104000        0
C       18.09460000       7.28027000       1.66961000        0
C       17.82750000       8.61036000       1.87790000        0
C       18.04860000       9.39063000       3.01742000        0
Cl      24.02080000      17.46280000       0.61587300        0
C       12.47110000      12.04940000       6.32585000        0
C       12.82160000      13.42240000       5.98950000        1
C       13.06000000       9.62457000       5.67892000        0
C       13.47410000      10.86820000       5.84185000        0
Cl      16.54720000       2.73423000       2.77716000        0
H       14.39770000      11.41170000       5.66235000        0
C       11.66910000       5.39040000      14.35460000        0
C       10.65070000       6.38898000      14.89740000        0
C       10.59060000       7.81687000      14.64040000        0
C       11.27100000       9.09900000      14.59420000        0
Cl      12.59450000       4.71381000      16.60540000        0
H       18.66340000       9.94115000      11.36480000        0
H       12.34780000       9.60663000      14.62480000        0
C       20.15280000      13.20620000      17.05510000        0
C       20.12630000      13.91920000      18.29540000        0
C       21.21550000      12.32360000      15.02220000        0
C       21.20300000      13.33810000      16.09080000        0
Cl       0.44108100       6.76746000       9.53203000        0
C       17.98330000       8.63888000      16.51150000        0
C       17.26530000       9.36398000      15.54550000        0
C       16.01780000       9.49346000      14.68420000        0
C       15.68860000      10.64270000      14.18700000        0
Cl      15.70050000      25.71370000       4.66913000        0
Cl      21.72120000      16.24380000      20.57050000        0
H       19.69160000      15.65670000      14.07890000        0
H       16.08730000       7.17676000      10.87020000        0
C       12.06980000       8.59262000      23.26880000        1
C       12.26190000       9.99505000      23.56450000        1
C       13.82130000       8.71708000      21.62620000        1
C       12.65250000       8.06349000      22.05120000        1
Cl      18.09890000       8.68232000      19.61560000        0
H        3.38437000      12.28950000      19.10300000        0
C       13.76090000      13.67630000       5.01905000        1
C       17.58510000      10.57560000       2.48203000        0
C       17.11200000      10.69910000       0.85466800        0
C       17.39580000       9.39322000       0.64272500        0
Cl      21.41130000      11.90240000       5.58929000        0
H       20.30070000      26.89350000       8.67041000        0
C       13.27850000      16.75600000       7.74439000        0
C       14.37140000      17.61470000       7.38335000        0
C       12.61930000      14.41030000       7.13926000        1
C       13.07260000      15.58580000       6.97668000        1
Cl       9.85203000      14.04710000       5.31113000        0
C       10.20330000       8.99729000      13.77330000        0
C        9.68789000       9.71939000      12.76190000        0
C        9.66552000       9.33192000      11.29780000        0
C        9.61774000      10.82810000      11.85920000        0
H        8.98492000      12.40670000      12.46810000        0
C       20.32180000      17.46560000      18.52710000        0
C       13.57550000      13.98730000      10.66840000        0
C       20.24040000      15.01840000      18.81990000        0
C       20.68340000      16.32300000      19.18160000        0
Cl      21.20090000      19.07350000      18.80410000        0
Cl      20.29560000      12.95590000      22.90380000        0
H       18.47310000       9.22327000      17.22210000        0
C       16.22460000      13.61470000      20.89360000        1
C       17.19520000      14.71330000      21.18950000        1
C       17.18020000      15.97810000      20.48430000        1
C       18.22280000      16.51030000      21.20480000        1
C       16.01070000      15.04060000       1.05083000        1
C       15.67640000      16.30150000       0.86939900        1
C       15.11150000      16.97480000      25.29200000        1
C       15.22620000      18.52950000       0.07532090        0
Cl      12.17900000      16.89990000       9.09236000        0
C       14.32240000      15.91340000       6.13668000        1
C       15.11970000      16.97740000       6.52561000        1
C       16.39220000      17.25560000       5.99552000        1
C       13.62940000      19.99680000       8.19884000        0
H       13.27400000      20.35740000       7.23544000        0
C       23.22460000      18.45330000       8.66106000        0
C       23.09560000      19.78240000       9.05882000        0
C       23.09810000      16.79480000      10.91390000        1
C       22.34650000      17.66130000       9.93202000        1
Cl      13.97820000      23.22760000       6.66852000        0
Cl      10.20480000      12.95550000       1.92872000        0
H       13.58640000      20.70240000      11.58080000        0
C       20.10310000      17.59490000       9.35343000        0
C       20.14080000      18.54610000      10.42550000        0
C       19.04100000      19.43050000      10.97110000        1
C       18.35350000      20.25850000      10.13620000        1
Cl      12.14790000      24.97360000      11.05970000        0
C       20.58230000      22.13550000      13.12230000        0
C       20.68350000      23.44760000      12.87600000        0
C       19.53640000      19.98410000      12.17410000        1
C       19.92480000      21.32160000      12.25880000        1
Cl      21.38990000      21.12180000      14.66170000        0
H       17.77470000      20.38850000       9.26305000        0
C       18.14230000      17.86320000      21.21470000        1
C       19.17650000      18.84830000      21.66210000        0
C       18.96650000      20.28350000      21.36440000        0
C       19.92330000      21.25710000      21.46600000        0
Cl      17.87130000      14.61280000      14.60220000        0
C       18.24080000      18.46220000       1.26640000        0
C       19.65930000      18.70200000       1.19757000        0
C       15.87080000      17.67090000       1.66925000        0
C       17.15500000      18.01130000       1.50780000        0
Cl      20.73720000      18.04700000       2.41738000        0
H       14.78210000      16.38620000      17.76410000        0
C       14.09050000      20.84190000       9.17592000        0
C       13.76840000      22.26820000       9.41542000        0
C       14.22790000      22.99460000      10.64920000        0
C       13.90360000      24.34380000      10.70080000        0
H       19.42450000      17.38220000       6.04713000        0
H        8.71615000      19.02940000       7.42257000        0
C       22.68060000      23.30230000       8.50690000        1
C       23.94710000      23.62420000       7.44495000        1
C       23.39390000      21.15640000       8.23740000        1
C       22.37380000      22.00930000       8.63793000        1
Cl      12.90080000       0.67939800      10.28470000        0
Cl      30.52500000      26.31100000       3.88224000        0
C       19.52710000      22.34120000      11.07180000        1
C       20.02760000      23.76190000      11.55170000        0
C       18.37600000      21.62090000      10.32540000        1
C       17.76960000      22.67700000       9.56171000        0
Cl      18.00140000      20.88940000       3.31830000        0
H       22.27230000      23.65470000      11.33430000        0
H       17.09380000      22.68220000       8.78353000        0
C       21.92760000      26.42290000      15.59530000        0
C       21.87340000      26.95150000      16.63700000        0
C       21.31220000      24.38370000      13.73560000        0
C       21.67560000      25.33260000      14.55960000        0
C       20.94270000      21.74990000      21.06750000        0
C       22.45870000      21.61820000      20.64330000        0
C       22.89290000      22.97310000      20.53200000        1
C       22.56020000      23.86440000      21.62210000        1
Cl      20.98770000      22.06780000       2.26552000        0
H       22.98500000      21.84640000      17.49460000        0
H       22.33970000      23.23520000      22.56270000        0
C       21.38750000      22.00630000       0.57880300        0
C       22.14540000      23.01490000      25.18680000        0
C       20.26100000      19.68860000       0.70773400        0
C       20.71380000      20.72190000      25.24460000        0
Cl      17.99500000      22.35190000      25.19430000        0
H       22.17920000      23.91750000       0.26183500        0
H       18.03430000      25.26110000      17.98890000        0
H       21.30670000      20.25180000      24.59170000        0
C       14.73120000      25.22500000      11.45030000        0
C       15.48650000      26.34120000      11.49330000        0
C       15.84360000       0.26844100      11.43230000        0
C       16.57670000       1.17273000      10.81460000        0
Cl      23.20490000       4.07052000       0.20470900        0
H       16.71190000       2.25239000      11.18140000        0
C       22.79390000      27.06840000       7.36309000        1
C       22.11250000       0.45132200       8.33732000        1
C       23.78620000      24.92610000       7.31846000        1
C       22.70010000      25.70700000       7.66229000        1
C       14.08600000      25.77840000      15.89300000        1
C       15.28260000      25.07720000      15.94570000        1
C       15.68910000      24.52740000      14.59210000        1
C       14.43080000      24.06270000      13.90450000        1
H       16.02720000      25.18730000      16.72500000        0
H       14.63080000      23.63190000      13.05260000        0
C       21.91120000       2.93056000      17.52790000        0
C       22.15710000       4.23960000      17.98520000        1
C       21.64730000       0.45411100      17.58940000        0
C       21.49840000       1.92315000      17.01030000        0
C       21.96700000      25.18600000      21.25400000        1
C       21.07790000      26.15480000      22.04090000        0
C       20.87850000      27.20780000      21.15550000        0
C       20.02310000       0.82148900      21.54630000        0
Cl      24.31720000      24.01030000      24.60440000        0
H       13.74090000      26.40790000      16.75090000        0
C        6.55800000       2.87747000       7.80147000        1
C        6.22974000       2.30519000       6.54746000        1
C       23.26610000      22.49250000      24.61620000        0
C        5.94271000       3.82341000       8.58793000        1
Cl      16.98900000      23.80240000      14.23080000        0
Cl      23.64720000      21.11130000      23.81080000        0
H        9.31737000       1.88963000      12.71480000        0
C       17.60180000       0.90930000       9.57566000        0
C       17.90250000       1.92280000       8.82431000        0
C       17.94760000       1.99670000       7.46071000        0
C       18.03910000       0.92685500       6.62954000        0
Cl      18.36170000      26.87350000       9.45233000        0
Cl      18.21940000       3.48956000       6.67467000        0
H       18.25950000      27.15960000       6.89411000        0
H       17.39110000       0.66275700       4.17351000        0
C       24.46640000       3.39884000       7.57041000        0
C       24.16450000       4.64146000       8.01364000        0
C       22.45910000       1.66102000       8.70014000        1
C       23.39520000       2.17488000       7.61265000        1
Cl      11.51950000      17.70990000       5.08238000        0
H       25.06090000       5.30496000       7.89935000        0
H       22.35810000       2.26998000       9.82663000        0
C       11.22670000      22.76850000      13.19420000        0
C       11.97810000      23.79880000      13.43060000        0
C       12.98570000      24.27510000      14.21460000        1
C       12.94700000      25.46890000      15.02580000        1
C       21.40080000       8.77542000      20.15010000        1
C       20.50750000       7.79053000      20.81800000        1
C       21.31760000       4.61054000      19.07120000        1
C       21.31970000       6.02472000      19.37160000        1
Cl      21.64080000      10.00860000      21.21840000        0
H       19.91540000       2.51503000      24.25060000        0
H       37.18520000       2.05878000      16.80830000        0
C       20.00630000       2.20973000      21.17010000        0
C       19.26220000       3.31319000      21.40350000        0
C       19.75120000       4.46354000      20.78170000        1
C       19.08570000       5.56514000      20.69030000        1
Cl      17.39890000      27.22660000      16.98450000        0
C       16.30170000      14.00620000       3.61433000        0
C       16.53140000      12.48380000       4.08839000        0
C       16.69940000      16.09780000       5.00211000        1
C       15.81570000      15.25180000       4.46638000        1
H       13.87540000      12.94820000       4.18187000        0
C       18.28860000       0.96055500       4.97378000        0
C       19.74000000       1.14889000       4.69871000        0
C       20.57790000       0.03706130       4.29877000        0
C       21.81370000       0.31948300       3.83701000        1
Cl      18.53820000      15.87670000       4.56435000        0
C       23.22320000       5.39380000      10.15750000        0
C       23.02320000       6.65705000      10.67560000        0
C       22.84620000       4.84564000       8.91427000        0
C       21.44380000       4.84804000       8.91534000        0
Cl      24.44600000       5.35878000       4.51473000        0
H       12.11370000       8.36688000       4.34504000        0
H       20.99710000       4.95184000       9.84059000        0
C       12.06800000      26.62300000      15.24510000        0
C       11.77600000       0.43804000      15.93750000        0
C       18.65660000      13.74000000       9.02696000        0
C       19.03330000      12.52680000       9.37240000        0
Cl      10.88660000      26.71560000      13.93710000        0
Cl      27.59480000      11.55490000      15.38020000        0
H       10.67920000       0.45534000      15.87040000        0
C       18.82160000       9.99304000      22.50190000        0
C       17.98750000      10.79760000      22.32290000        0
C       20.25910000       8.01647000      22.42940000        0
C       19.33060000       8.76616000      23.04040000        0
Cl      16.16470000      12.18850000      16.53230000        0
Cl      21.25330000       6.55730000      22.82170000        0
H       19.22590000       8.58924000      24.19590000        0
C       20.16070000       6.54866000      20.28200000        1
C       17.78680000       6.04625000      20.42490000        0
C       16.98990000       5.45004000      19.39230000        0
C       15.83460000       5.89661000      18.63000000        0
Cl      21.23680000       0.38564000      25.17050000        0
Cl      18.11920000       4.52488000      18.49810000        0
C       16.61290000      11.94590000       0.78719400        1
C       15.99840000      12.68130000      25.17060000        1
C       16.97110000      11.78180000       3.02392000        0
C       16.80990000      12.68850000       1.99513000        1
Cl      14.60970000       8.64676000      15.35240000        0
C       22.32570000       1.61581000       4.23622000        1
C       23.79520000       0.29339600       2.36044000        1
C       24.32130000       1.44722000       2.49655000        1
C       23.43690000       2.08769000       3.37441000        1
Cl      24.74560000      26.57970000       1.30950000        0
H       23.24030000      25.04240000       2.15419000        0
H       18.78140000      26.47740000       4.10535000        0
C       23.27580000      10.07460000      10.69530000        0
C       22.76090000      11.19680000      10.43590000        0
C       23.13480000       7.75577000      11.34650000        0
C       23.97620000       8.88017000      11.21070000        0
Cl      22.03630000       9.69378000       7.83577000        0
Cl      27.67140000       7.48416000      13.96520000        0
H       24.90240000       8.94892000      10.97270000        0
C       18.84770000      11.37850000       9.93318000        0
C       18.70690000      10.12630000      10.33570000        0
C       22.11480000      11.37460000       8.14636000        0
C       21.90730000      12.31740000       7.20387000        0
Cl      16.33610000       7.83847000      12.01540000        0
H       24.29960000      10.50530000      13.98890000        0
C       18.23420000      14.43740000      22.17350000        1
C       18.91760000      15.65080000      22.07660000        0
C       17.76840000      12.20960000      21.84110000        1
C       18.71310000      13.21500000      22.31930000        1
Cl      19.06840000      17.72580000      17.48920000        0
H       20.03770000      15.50920000      21.99630000        0
C       15.54740000       9.74266000      18.36370000        1
C       16.02330000      10.95930000      19.03780000        1
C       16.11160000      11.00010000      20.50610000        1
C       16.53240000      12.33590000      21.11180000        1
H       13.85760000      13.33740000      11.47240000        0
C       14.75120000      14.69720000      24.42230000        1
C       14.34260000      16.11520000      24.48940000        1
C       15.73110000      14.19460000      25.33940000        1
C       16.37710000      13.98290000       2.26966000        1
Cl      21.95790000       7.01553000       4.42478000        0
C       22.39420000       2.98275000       4.38723000        0
C       21.91370000       4.38520000       4.21955000        0
C       22.72660000       5.42411000       4.27423000        0
C       14.62230000      15.09060000       5.05212000        1
Cl      16.97020000       6.41682000       4.02129000        0
H       23.47650000      13.47560000      23.66050000        0
C       22.44330000      14.65660000       9.61625000        1
C       23.02380000      15.43270000      10.59260000        1
C       22.56240000      12.11040000       9.37655000        0
C       22.15560000      13.43010000       8.99138000        0
C       21.64490000      13.63340000       7.71789000        0
C       21.56180000      15.06950000       7.38240000        0
C       21.61010000      15.70400000       8.62640000        1
C       21.23960000      16.90710000       9.00177000        1
H       21.24670000      15.57230000       6.43830000        0
C       19.12470000      18.10970000      13.94220000        0
C       19.67050000      19.01010000      13.25420000        0
C       18.63120000      16.03090000      14.46330000        0
C       18.04470000      17.35090000      14.37950000        0
Cl      18.25460000      23.06530000      16.61360000        0
H       12.58950000      13.93910000      10.28560000        0
