1442
Lattice="35.166031176 0.0 0.0 0.0 25.4704786163 0.0 0.0 0.0 23.5652886239" Properties=species:S:1:pos:R:3:ring:I:1 pbc="T T T"
C       20.90280000      15.25900000      15.61410000        1
C       21.22630000      16.54290000      15.75650000        1
C       22.26210000      17.27570000      15.02850000        1
C       22.92780000      18.45060000      15.19040000        1
Cl      20.20690000      14.78310000      16.92090000        0
Cl      15.19060000      24.71540000      21.68280000        0
C       28.01090000      13.88360000      20.76760000        1
C       24.91760000      20.31290000      21.43500000        1
C       27.41490000      16.39050000      20.74340000        1
C       28.20170000      15.39320000      21.11440000        1
C       24.33850000      19.11350000       3.11130000        0
C       24.33960000      20.46480000       2.63010000        0
C       16.58000000      21.77180000      23.50710000        0
C       17.28860000      21.69140000      22.48280000        0
Cl      24.91030000      17.75980000       2.56285000        0
Cl       9.39117000      16.48940000      15.46420000        0
C       23.49080000      20.80830000       4.67417000        0
C       23.68060000      21.50270000       3.54065000        0
C       22.90830000      19.64380000       6.59303000        1
C       23.06430000      21.01460000       6.06097000        1
H       27.20860000      19.68650000       9.46142000        0
C       18.26910000      16.19950000      10.58050000        0
C       20.66930000      17.31930000       9.59589000        1
C       20.58390000      18.70070000       8.84359000        1
C       20.28710000      20.30790000       8.97248000        1
C       23.69320000      18.82120000      14.14350000        1
C       24.34880000      20.05080000      14.20840000        1
C       23.55820000      17.06880000      12.75500000        1
C       23.84350000      18.41960000      12.82750000        1
Cl      30.11900000       2.83724000       2.27410000        0
H       34.88080000      21.47770000      18.09020000        0
C       22.63710000      19.40960000      16.16970000        1
C       23.51300000      20.68090000      16.24100000        1
C       23.47410000      21.88210000      17.09150000        0
C       23.76400000      19.74560000      20.77720000        1
H       21.72880000      16.09860000      18.93500000        0
C       24.11490000       1.19726000      22.05200000        0
C       23.85600000       2.39335000      22.22100000        0
C       23.28840000      17.55780000      19.15800000        0
C       24.91880000       0.14915800      22.50420000        0
C       20.24240000      21.64110000       2.69522000        0
C       20.18680000      20.17660000       3.04296000        1
C       20.23500000      19.20290000       2.06934000        1
C       19.89870000      19.22470000       0.71635700        1
H       19.93420000      20.09890000      23.30140000        0
C       22.25950000      25.25670000       4.40370000        0
C       23.05390000       0.47646500       3.42657000        0
C       23.22940000      22.85070000       3.62505000        0
C       22.49420000      23.83820000       4.44153000        0
Cl      29.54390000      22.28480000       2.41983000        0
C       19.49260000      21.27610000       9.62095000        1
C       19.60670000      22.64880000       9.00663000        1
C       20.90350000      22.87940000       8.14773000        1
C       21.11130000      24.15070000       7.32667000        1
H       26.14530000      25.01100000      16.42340000        0
C       26.04300000      24.29940000      14.20690000        1
C       28.20570000       0.01023170      13.87690000        1
C       27.08220000      23.40660000      13.64420000        1
C       26.15820000      22.72850000      14.52240000        0
C       22.49710000      20.59770000      21.10930000        0
C       21.45030000      20.53150000      19.49380000        0
C       21.68670000      21.88160000      18.81980000        0
C       23.33810000      23.74590000      18.17970000        0
C       22.55110000       6.88861000      21.17730000        0
C       21.84760000       5.17394000      23.04600000        1
C       23.91480000       3.58299000      21.67630000        0
C       22.60180000       5.68945000      21.96160000        0
H       19.31170000       5.77080000      22.63220000        0
C       19.73900000      18.14300000      23.53000000        1
C       19.51200000      16.60680000       0.35749300        1
C       19.77570000      16.25930000       1.49738000        1
C       19.99990000      17.42060000       2.44391000        1
H       18.39710000      14.85670000       0.64149600        0
C       24.84080000       0.76178300       5.59448000        0
C       26.60610000      11.82590000       2.93342000        0
C       24.52640000       0.83917800       3.13400000        0
C       25.33190000       0.80260200       4.45447000        0
Cl      20.34350000       1.59931000      16.00980000        0
H       25.62170000      10.87880000       4.70018000        0
H       23.80570000      23.09500000       2.75055000        0
C       20.45400000       2.28221000       6.87929000        0
C       19.44110000       3.29618000       7.44206000        1
C       20.21140000       2.25065000       8.28204000        1
C       19.44600000       1.05998000       8.83288000        1
C       25.79990000       0.90885900      14.88620000        1
C       25.43470000       0.52218800      16.10490000        1
C       28.95020000      24.51920000      13.36210000        1
C       26.84160000      25.33970000      14.44140000        1
H       21.44670000       2.44936000       8.68296000        0
C       21.44590000      25.21190000      19.43950000        1
C       21.09410000       1.23677000      19.39300000        1
C       20.49700000       5.18153000      23.17570000        1
C       18.78900000       3.19792000      23.55410000        0
C       23.64720000       6.83034000      20.21690000        1
C       23.39920000       7.73936000      19.28320000        1
C       23.41690000       4.75244000      21.28890000        0
C       24.12880000       5.53713000      20.13180000        1
Cl       4.02908000      16.51660000      21.99420000        0
H       22.71580000       8.75024000      20.02640000        0
C       19.78680000      17.43630000       3.78399000        1
C       19.83350000      18.46910000       4.76447000        1
C       19.89510000      19.98160000       4.47535000        1
C       19.60530000      21.45310000       5.02922000        0
H       19.91170000      16.57030000       4.42602000        0
C       29.11480000      11.77640000       5.19446000        0
C       29.36530000      12.79810000       4.31366000        1
C       26.59540000      11.45970000       4.47771000        0
C       27.74140000      11.23640000       5.49133000        0
H       25.19080000      12.49370000       5.30817000        0
C       18.13070000       1.27029000       9.20244000        1
C       17.38560000       2.58141000       8.45406000        1
C       18.08910000       3.29554000       7.49584000        1
C       19.87040000       4.69457000       6.83698000        0
Cl      22.22660000      25.39430000      13.34670000        0
C       23.13490000       2.90542000      17.42370000        1
C       22.54620000       4.02344000      17.10230000        1
C       24.26050000       1.05816000      16.77050000        1
C       23.88200000       2.38161000      16.58760000        1
C       16.25540000       0.96689400       1.30843000        1
C       15.63110000       1.51232000       0.16562500        1
C       15.26770000       3.33572000      21.85880000        1
C       17.19930000       1.78614000      21.44480000        1
Cl      17.44430000      11.88790000      11.55920000        0
C       25.07140000       5.69323000      16.41780000        0
C       25.68890000       6.88240000      16.02050000        1
C       24.68620000       5.12608000      19.07520000        1
C       24.24990000       5.87767000      17.83420000        1
Cl      14.79620000      22.55320000       1.54633000        0
H       17.55160000       5.50225000       0.82029800        0
C       19.87340000      22.21820000       3.99704000        0
C       19.75370000      23.52660000       3.82534000        1
C       20.39640000      22.76150000       1.76412000        0
C       20.06180000      23.90780000       2.48334000        1
C       26.67390000      14.01440000       1.83165000        1
C       25.64360000      13.38380000       1.41803000        0
C       28.46980000      13.42710000       3.46233000        1
C       27.55660000      12.92720000       2.69610000        1
Cl      32.26090000      19.65320000       2.12803000        0
C       21.39240000       6.34964000       6.77437000        0
C       21.53380000       7.68737000       6.60846000        0
C       22.60400000       6.05210000      13.27390000        0
C       21.98870000       7.12637000      13.68280000        0
Cl      22.11770000      20.33650000      22.77740000        0
C       20.96240000       6.61342000      16.59000000        0
C       20.92580000       7.36656000      15.67850000        0
C       21.44680000       4.62994000      18.17320000        1
C       20.89060000       5.83660000      17.85860000        1
C       15.96540000       4.50473000      21.36450000        1
C       19.89070000       4.05538000       0.27341100        1
C       21.41360000       7.06423000       3.85649000        0
C       17.47790000       3.44170000      23.02170000        0
C       27.79980000      10.72610000      20.01430000        1
C       27.15050000      11.27110000      18.86300000        1
C       25.98390000       8.26659000      16.50160000        1
C       27.70490000       8.54459000      18.47230000        1
Cl      28.57830000      21.36280000      21.19420000        0
Cl      21.85310000      10.16850000      16.15500000        0
Cl       9.60534000       3.95179000      21.07980000        0
H       27.98950000      13.15980000      21.72420000        0
C       19.73070000      25.24690000       2.04123000        1
C       18.97410000      24.56850000       4.43495000        1
C       21.68710000       7.96900000      21.62420000        0
C       19.97020000       7.33100000       4.05599000        0
C       25.01660000       9.67176000       1.38096000        0
C       24.63840000       7.08490000       1.86869000        0
C       25.51330000      11.97920000       2.08915000        0
C       25.18280000      10.98580000       1.19143000        0
H       16.55800000      13.40280000      15.71760000        0
C       19.43090000       7.43662000      13.59370000        0
C       19.18520000       8.55988000      12.83830000        0
C       20.02640000       9.72263000      12.81430000        0
C       19.86210000      11.21480000      13.01330000        0
Cl       8.20584000      11.21540000      21.19030000        0
C       21.16220000      10.58530000      14.62570000        0
C       20.72060000      11.69860000      13.96210000        0
C       20.84130000       7.89100000      14.25380000        0
C       20.80760000       9.41909000      13.80490000        0
C       19.32970000       7.68524000       2.94165000        0
C       19.47380000       9.24421000      22.25440000        0
C       20.41580000       8.36334000      21.56050000        0
C       18.51600000       9.58141000      23.33840000        0
C       26.87950000      14.96050000      19.16110000        1
C       26.54770000      16.12600000      19.66160000        1
C       26.92580000      12.68930000      18.89280000        1
C       27.38710000      13.82380000      19.60690000        1
C       19.06500000       8.04834000       1.77624000        0
C       16.84000000       5.90241000      23.49900000        1
C       15.92500000      21.32310000       0.88059900        0
C       23.91230000      19.36860000       4.51165000        0
Cl      18.31500000      13.37050000       3.08386000        0
C       23.11520000      17.28420000       6.32244000        1
C       23.15310000      18.63830000       5.63165000        1
C       24.95520000       8.48044000       1.75179000        0
C       23.61720000       7.23651000      17.88300000        1
Cl      24.56930000      21.21340000       1.17302000        0
H       20.27220000      12.81020000       9.30759000        0
H       22.92160000       7.37836000      16.85240000        0
C       19.20500000      12.22960000      12.37330000        0
C       19.44530000      13.59370000      12.92050000        0
C       18.90290000      14.76420000      12.23090000        0
C       18.96270000      15.01350000      10.88820000        0
C       22.08460000      15.21000000      13.54130000        1
C       22.77430000      16.44280000      13.84310000        1
C       20.38440000      13.43140000      14.13390000        0
C       21.22830000      14.46240000      14.47230000        1
Cl      25.35880000      11.83150000      14.19860000        0
C       26.29300000      10.40750000      17.83970000        1
C       25.39110000      11.19080000      16.82490000        1
C       24.92300000      12.54900000      17.27260000        1
C       25.77260000      13.23940000      18.16890000        1
H       34.84030000      18.73550000      19.23940000        0
C       31.55150000      13.70730000      20.87120000        0
C       28.36590000      18.25790000      22.05800000        0
C       30.19230000      11.47630000      21.02580000        0
C       30.93220000      12.55110000      20.86720000        0
Cl      28.92390000      15.89020000      22.55440000        0
C       31.05630000      17.61060000       3.82988000        0
C       30.93980000      18.68910000       2.67243000        0
C       28.82840000      18.81340000       5.14794000        0
C       28.43750000      17.64680000       4.27057000        0
H       34.07100000      22.26420000      11.77490000        0
H       27.60120000      16.95850000       4.44099000        0
C       33.07160000      21.21060000       6.11577000        1
C       34.51180000      20.85340000       6.70113000        1
C       32.79080000      19.01580000       4.94728000        1
C       32.44850000      20.32960000       5.13667000        1
Cl      20.83950000      17.68190000      11.28860000        0
C       24.14050000      15.66330000       7.87766000        0
C       24.52330000      14.41330000       8.17957000        1
C       25.14320000      13.36560000       7.41209000        1
C       24.52760000      13.00430000      10.21160000        1
C       24.91090000      11.87820000       9.59529000        1
C       23.81200000      15.78950000      10.18030000        0
C       26.45930000      11.02770000       7.80654000        0
C       25.40490000      12.20510000       8.20442000        1
C       25.63390000      14.63640000      18.30340000        1
C       24.72230000      15.47140000      17.61150000        1
C       24.37700000      16.57840000      18.74600000        1
C       25.60740000      17.01620000      19.32260000        1
Cl      23.18710000      13.17790000      16.84170000        0
C       26.25290000      18.71320000      21.13420000        1
C       26.29250000      20.03620000      21.67430000        1
C       28.98170000      19.07490000      23.08710000        0
C       27.46310000      17.79450000      21.26720000        1
Cl      16.72290000      19.76780000       4.05419000        0
H       26.31550000       1.25425000       0.60244000        0
C       28.46620000      19.12240000       6.64239000        0
C       27.78090000      20.27610000       7.40709000        0
C       27.18530000      21.02280000       6.39886000        0
C       32.45640000      22.41580000       0.44663900        1
H       32.24410000      21.45790000       0.94459100        0
C       33.81570000      23.16090000       3.54877000        0
C       34.36950000      23.66640000       2.09583000        0
C       33.14120000      22.62800000       5.95289000        0
C       33.34630000      23.14550000       4.65594000        0
Cl      28.42290000       4.85508000       7.29150000        0
C       24.27540000      14.25640000       9.67459000        1
C       24.07940000      16.45590000       9.11983000        0
C       24.31370000      17.81640000       9.22939000        0
C       24.38970000      19.71020000      12.57000000        0
Cl      20.51570000       3.00153000       4.36552000        0
C       30.41660000       0.00297811      10.46420000        0
C       29.48970000       0.78874900      11.20890000        0
C       23.33520000      16.07510000      11.65500000        0
C       22.29130000      15.05170000      12.03240000        0
Cl      18.15210000      18.97470000      14.11540000        0
H       30.00340000       2.84142000      20.16350000        0
C       25.29390000      17.99190000      20.36570000        1
C       23.93750000      18.50270000      20.17610000        1
C       24.39160000      21.02410000      15.01840000        1
C       25.17300000      22.20240000      15.50590000        0
H       31.85890000       1.44135000      19.61560000        0
C       25.03820000      21.94560000      22.09570000        0
C       24.10450000      22.99770000      22.25780000        0
C       27.03790000      21.19080000      22.11530000        0
C       26.88960000      24.71750000      23.44780000        0
Cl      20.07030000      23.76780000      16.14170000        0
Cl       7.49717000      22.76690000       7.94283000        0
H       28.32670000       1.07641000      14.05620000        0
C       31.28210000      22.61730000      23.41770000        1
C       30.88730000      23.98000000      22.96710000        1
C       31.52030000      25.10670000       0.09524890        1
C       31.03560000       0.87460500      23.32790000        1
Cl      31.21810000      21.15960000      22.19840000        0
H       30.42370000      23.69640000      20.62500000        0
C       34.61440000      25.03920000       2.09298000        1
C       33.53150000       0.39709100       1.36434000        1
C       33.03600000      23.55050000       1.17351000        1
C       32.59550000      24.84170000       0.94709300        1
Cl       0.25685600       7.43367000       2.17189000        0
C       24.26240000      20.71870000      11.54060000        0
C       24.23680000      22.13430000      11.69520000        1
C       23.51640000      23.11200000      12.63850000        1
C       23.26250000      24.30560000      12.30090000        1
Cl      13.18530000      13.16320000       4.75650000        0
H       23.22170000      22.68520000      13.63040000        0
H       25.66860000      23.86930000       8.58066000        0
C       30.44590000       1.05925000      13.53280000        1
C       29.45910000       4.25863000      12.90590000        1
C       31.21670000      24.56880000      14.86370000        1
C       30.34900000      24.98440000      13.80080000        1
C       24.66430000      22.52380000      16.78870000        0
C       24.78740000      23.47630000      17.81600000        0
C       26.12440000      23.58060000      18.36930000        0
C       27.01260000      24.54370000      18.80570000        0
C       24.93490000      24.12290000      22.40050000        0
C       25.96290000       0.36361400      23.53070000        0
C       26.21730000      22.28390000      22.66140000        0
C       26.33800000      23.59730000      22.86170000        0
C       31.86300000       5.21281000       1.13724000        1
C       32.21080000       6.04417000       2.20157000        1
C       32.64430000       4.86228000       4.18284000        1
C       33.33900000       5.61022000       5.26336000        1
Cl      25.49020000      11.28200000      22.73540000        0
H       33.94560000       0.10777100      22.74280000        0
C       28.66820000       8.63955000       6.89061000        1
C       29.53050000       8.93907000       5.59366000        0
C       33.70790000       1.67776000       1.04051000        1
C       33.67860000       5.35081000       2.71941000        0
H       34.66920000      23.22400000      23.02110000        0
C       23.58410000      24.83010000      11.03570000        1
C       23.66850000       0.67912700      10.56110000        1
C       23.39060000       1.81262000      11.36190000        1
C       23.00460000       3.11209000      11.04900000        1
C       29.99800000       4.34995000      14.05750000        0
C       29.50140000       5.56659000      15.08870000        0
C       29.97610000       3.01364000      12.04580000        1
C       30.21690000       3.97789000      10.92180000        1
H       22.28420000       4.30025000      16.14810000        0
C       27.92580000      25.13180000      19.72410000        0
C       28.80270000       0.07947510      20.41470000        0
C       30.85440000       3.07451000      17.37080000        1
C       30.13130000       3.72476000      18.27390000        1
H       23.07820000      23.08170000      22.02620000        0
C       29.74680000       0.90809600      22.81390000        1
C       30.26980000       3.04746000      23.16230000        0
C       29.58940000       0.02062000      21.63500000        1
C       30.03690000      24.32330000      21.74520000        1
Cl      31.68720000       9.21844000      21.13670000        0
C       31.90330000      13.35930000       8.18412000        1
C       33.69970000      10.86520000       3.52959000        0
C       32.47920000      10.19410000       3.50867000        0
C       32.12340000       9.40898000       2.29632000        0
Cl      34.66970000       5.64685000      10.30260000        0
C       30.79440000      13.44770000       4.68644000        1
C       28.77560000      14.73910000       3.43809000        1
C       30.48420000       9.17151000       4.82173000        0
C       31.81890000       9.82986000       4.72194000        0
H       34.80910000      12.34110000       6.75522000        0
C       23.28770000       5.06541000      10.66490000        0
C       24.87970000       6.40494000      11.63610000        0
C       26.82710000       4.93655000      12.92220000        0
C       26.07350000       5.52402000      11.75480000        0
C       25.95460000       7.71465000      13.38040000        1
C       25.07640000       7.69363000      12.28520000        0
C       29.49030000       7.09861000      14.44430000        0
C       25.89280000       6.74775000      14.44850000        1
C       29.80760000       3.73356000      19.72670000        1
C       29.41240000       4.95660000      20.44110000        1
C       29.08250000       6.20983000      19.93770000        1
C       28.48910000       6.95505000      20.94730000        1
C       30.69700000       5.36935000       0.52444100        1
C       30.15270000       6.74923000       0.59882300        1
C       30.11470000       4.47467000      23.03340000        1
C       29.40520000       5.15111000      21.85230000        1
C       31.76790000       7.49623000       2.12712000        1
C       30.62140000       7.66509000       1.46499000        1
C       27.02580000      15.41110000       1.94370000        1
C       18.71310000      15.82710000      23.25680000        0
H        0.66069100      11.83990000      23.03240000        0
C       31.10110000      14.74900000       4.52734000        1
C       32.46590000      15.30490000       5.15071000        1
C       28.15210000      15.69970000       2.56105000        1
C       29.87290000      15.54000000       3.90966000        1
C       26.13540000       5.27692000      14.18060000        0
C       25.36680000       4.58383000      15.42320000        0
C       24.91820000       3.18244000      15.55950000        1
C       25.72410000       2.26278000      14.67810000        1
H       26.40530000       5.67253000       9.58377000        0
H       28.97130000       7.03107000      16.16280000        0
H       26.23940000       2.71089000      13.90970000        0
C       25.15290000      10.53620000       9.97501000        0
C       26.12550000      10.02720000       8.99676000        0
C       24.62380000       9.03844000      12.16300000        0
C       24.27810000       9.69848000      10.97230000        0
C       28.89560000       6.48643000      22.08880000        1
C       25.69070000       9.14632000      15.45960000        1
C       25.46140000      10.66500000      15.66100000        1
C       26.54920000       9.09416000      17.75800000        1
Cl      25.57590000       3.65595000      19.27200000        0
C       30.32600000       8.86900000       0.66625900        0
C       30.78520000       9.94423000       1.56546000        0
C       29.27590000       7.24440000      23.16220000        1
C       29.37790000       8.70808000      23.19620000        1
Cl      33.44810000      11.65610000      21.87490000        0
C       29.34390000      18.60310000       0.69662900        0
C       29.74300000      18.32520000       1.96542000        0
C       28.71360000      17.26960000       2.76229000        0
C       29.82950000      16.91070000       3.72298000        0
H        0.21229200      13.06910000       2.55220000        0
C       32.97970000      16.72170000       5.16655000        0
C       32.11730000      17.74420000       4.72803000        0
C       32.80470000      14.35920000       6.14345000        1
C       33.77750000      14.80120000       7.62724000        0
H       29.76350000      19.11460000       4.96246000        0
H       25.29080000      17.08210000       4.95341000        0
H       33.88290000      13.41210000      10.49390000        0
C       25.18390000      13.57420000       6.02079000        0
C       25.16200000      14.60830000       5.20541000        0
C       25.01360000      16.13430000       5.63260000        0
C       24.15270000      16.43840000       6.59926000        0
Cl      23.37060000       8.87174000       9.54956000        0
Cl      27.50820000       2.44813000      22.55280000        0
H       25.54940000      14.30690000       4.21844000        0
C       27.50110000       9.25566000       7.20324000        1
C       27.07680000      10.59300000       6.67554000        0
C       26.91940000       8.93994000       8.69598000        1
C       27.79260000       7.88263000       9.37538000        1
Cl      24.24570000      14.32910000       0.71786800        0
C       35.07440000      18.66300000      21.23440000        1
C       35.10090000      19.50710000      20.00420000        1
C        0.41556900      20.84120000      20.14300000        1
C        0.15610300      21.90400000      19.11130000        1
Cl      29.81040000      13.13860000      17.53540000        0
C        4.36934000      25.02640000       1.52181000        0
C        3.18373000       0.25122200       1.79885000        0
C       35.01570000       2.24769000       0.96977100        1
C        1.11724000       1.23512000       1.32347000        1
C       34.00100000      18.75560000       5.56047000        1
C       34.89890000      19.63700000       6.19875000        1
C        0.92021100      19.01240000       6.69933000        1
C        1.48144000      17.75890000       6.11443000        1
Cl      29.71590000      15.34330000       7.46744000        0
Cl       2.06572000      10.31660000       2.09367000        0
H        2.45898000      17.76380000       6.57575000        0
C       29.96710000       2.22847000       4.98687000        0
C       30.81810000       3.13789000       3.97061000        0
C       29.71030000       0.31870500       6.11652000        1
C       29.14850000       0.97965100       4.84987000        0
C       30.41070000      11.86430000       6.72404000        1
C       26.33380000      21.93340000       6.97530000        0
C       26.23680000      21.56040000       8.66184000        0
C       27.19500000      20.58040000       8.57170000        0
C       28.64250000      22.28750000      12.33850000        0
C       28.19270000      23.33970000      13.05200000        1
C       31.46640000      18.56640000      16.99530000        0
C       32.20490000      19.88340000      16.87910000        0
H       23.81900000       1.95617000      12.30090000        0
H       30.02480000      15.99120000      16.82380000        0
C       34.64290000      23.07310000      19.68120000        1
C       33.69910000      23.96950000      18.66590000        1
C       34.43380000      23.15250000      16.24590000        0
C       33.39370000      23.91130000      17.24950000        1
C        0.75308200       0.25461100       2.21804000        1
C        2.49696000       1.33828000       0.99224000        0
C        2.18317000      25.00420000       2.52953000        0
C        2.16096000      23.82360000       3.24760000        0
Cl      11.08960000       8.05243000      14.50540000        0
H        0.03043110      21.97660000       8.39903000        0
C       31.40510000       1.69634000      17.15490000        1
C       32.17960000       0.37969900      17.84230000        1
C       32.38150000       0.47718400      19.06730000        1
C       33.31320000      25.01380000      19.56360000        1
Cl      32.92440000       6.35920000      21.08480000        0
Cl       7.53130000      23.17530000      14.01690000        0
C       31.96170000       3.37893000       9.36649000        1
C       31.49540000       3.44530000       5.90605000        1
C       31.62620000       4.11743000       4.55386000        1
C       24.08530000       1.08142000       9.23972000        1
C       24.69230000      18.97030000       9.58805000        0
C       25.00060000      20.42400000      10.05620000        0
C       25.37100000      21.65970000       9.50022000        0
C       24.58120000      22.62580000      10.22470000        1
H       31.14330000      23.45380000      14.87580000        0
C       31.01540000      19.90610000      11.73550000        1
C       32.22030000      20.36020000      12.36570000        1
C       28.76250000      21.57750000      11.29280000        0
C       29.70750000      20.75340000      10.73120000        0
Cl      32.06250000      21.04850000      18.15510000        0
C       32.54580000      24.93080000      16.87670000        1
C       31.80730000      25.39950000      15.79670000        1
C       31.21520000       1.21963000      15.90500000        1
C       30.96750000       1.92028000      14.66750000        1
C        2.74211000      25.03950000      20.78910000        1
C        1.49244000       0.07302470      18.17790000        1
C        3.21011000       1.41437000      22.25620000        0
C        3.44234000      25.39160000      21.95490000        1
C       33.72770000      24.48410000      20.95520000        0
C       34.45560000      23.45980000      20.95560000        1
C       32.76940000      10.20500000       5.68464000        0
C       33.89120000      11.05050000       5.03638000        0
Cl       4.49492000      18.55870000       6.66539000        0
C       31.43310000       2.22989000      23.47340000        0
C       32.57130000       2.57379000       0.60921300        1
C       30.87720000       2.20437000       5.99736000        0
C       30.52890000       0.92418300       6.98790000        1
Cl       1.11936000       8.16088000       8.85476000        0
C       24.40730000      24.03090000      10.02610000        1
C       24.98860000      24.61380000       8.91596000        1
C       24.48960000       0.31789600       8.20224000        1
C       24.41080000       1.03547000       6.80303000        0
C       33.37810000      20.17430000      11.68970000        1
C       34.39290000      21.21410000      11.43450000        0
C       31.13590000      18.53390000      10.78160000        1
C       30.01890000      18.22580000      10.02150000        0
C       30.57770000       3.32238000      14.91860000        1
C       30.18290000       3.75660000      16.24230000        1
C       29.68710000       5.14847000      16.38850000        0
C       29.56210000       5.22293000      17.76420000        1
C        0.91764300       3.26584000      19.76630000        1
C        2.07247000       3.05772000      20.76450000        1
C        1.01898000       0.86785600      19.20560000        1
C        0.51862600       2.23047000      18.89530000        1
Cl      11.80600000       1.38692000       5.25564000        0
C       34.34470000      12.29000000       5.57157000        0
C       35.13900000      13.23420000       4.77362000        0
C        0.99378600      15.54810000       5.02289000        0
C        0.29575300      15.22150000       3.73235000        0
C        5.01432000       7.76834000       1.91523000        1
C        6.44683000       8.81498000      23.32100000        1
C       32.87390000       3.90817000       1.00954000        1
C       33.91440000       4.06377000       1.94642000        1
Cl      11.79300000       2.13439000      20.54240000        0
C       24.15800000       2.42844000       7.31109000        0
C       23.79250000       2.36031000       8.65597000        1
C       23.26050000       3.37894000       9.54691000        1
C       26.98510000       5.57239000      10.38870000        0
C        1.17847000      23.44010000      11.56370000        0
C        1.05095000      24.72680000      11.79240000        0
C        0.57996300      20.95300000      10.99510000        1
C        1.38473000      22.14850000      11.00630000        1
H       34.01220000       0.18824800      10.60610000        0
C       29.68920000       6.47236000      18.59160000        1
C       28.91310000       7.53338000      17.62970000        0
C       29.91680000       8.06808000      16.64620000        0
C       28.10140000       9.02648000      19.62050000        1
Cl       5.60740000       4.96934000      11.62620000        0
C       28.73320000       7.17310000      13.34280000        0
C       28.24840000       8.15462000      12.82910000        0
C        2.37169000       1.78832000      21.18880000        1
C        1.74262000       0.75658400      20.53110000        1
Cl       7.36695000      18.60770000      19.35610000        0
C        0.13237100      13.86710000       3.46113000        0
C        0.29701700      14.47000000       5.83146000        0
C       34.76110000      14.59570000       6.94787000        0
C       34.45410000      10.31860000       2.43873000        1
H       32.74820000       9.35045000      22.75180000        0
C        4.93967000       9.06450000       3.93677000        1
C        4.80311000       7.74532000       3.36581000        1
C        5.20051000       9.28544000       1.68067000        1
C        5.51440000       9.88828000       2.88208000        1
C       28.15480000       4.99526000      10.84060000        1
C       28.11640000       4.60872000      12.27050000        1
C       29.48720000       4.79475000      10.09900000        1
C       29.75740000       6.02321000       9.42122000        1
Cl      25.52990000      23.38740000       6.75237000        0
C       33.73360000       0.77054000      11.48460000        1
C       32.56870000       1.56002000      11.34750000        1
C       34.19540000       1.00510000      12.74520000        1
C        0.17439200       0.23695400      13.11890000        1
Cl       0.76470300      16.26790000       2.33341000        0
Cl      32.21180000      22.49020000      12.86540000        0
C       28.52310000       8.51572000      20.70230000        1
C       29.11450000       9.30428000      21.69620000        1
C       28.91150000      10.93780000      20.98540000        0
C        2.54217000      13.15720000      18.32240000        1
C        0.70725900      19.08150000      22.38790000        1
C        0.87447100      20.36140000      22.38350000        1
C       25.69980000       8.83459000      14.14880000        1
C       24.93710000       9.71526000      13.39740000        0
H       33.03450000       0.78161400      21.47540000        0
H       23.95950000      10.16090000      13.67890000        0
C        0.42402800      10.96860000       1.93954000        1
C        0.14849500      11.13120000       0.43784400        1
C       34.20350000      10.70630000      23.41000000        1
C       33.38360000       9.47121000       0.12604200        1
Cl      16.51910000      24.96670000       7.72734000        0
C       33.52320000      14.46990000      10.09320000        0
C       34.63210000      15.54620000      10.28830000        1
C        5.66708000       6.64378000       1.18989000        1
C       32.36510000      15.17110000      10.91010000        0
C       28.72350000       6.93873000       8.73279000        1
C       29.53950000       7.81492000       7.97119000        1
C       30.41850000       8.60379000       8.73774000        1
C       30.73240000      10.05030000       8.91705000        1
H       32.78830000       7.57004000      21.31650000        0
C       30.33140000      12.37170000      14.89100000        1
C       29.91490000      13.25840000      15.82720000        1
C       32.21410000       2.98324000      11.93410000        1
C       29.74660000       1.65790000      12.40130000        0
C       32.49170000      14.58070000      20.70990000        0
C       33.01210000      15.69320000      20.92850000        0
C       33.80040000      16.57290000      20.92810000        0
C       34.66890000      17.52180000      20.98730000        0
H        1.17390000      20.51320000      23.48450000        0
C        2.32629000       4.25229000      21.44390000        0
C       33.63380000       0.14635100      21.84020000        0
C        0.49942200      21.37930000      21.64130000        1
C        0.01052060      22.76590000      22.07140000        1
Cl      34.07890000      14.72510000      17.56140000        0
C       33.17010000       9.66056000       1.36688000        1
C       33.09620000      14.14220000       8.67931000        0
C        0.62028700      16.90100000       5.68038000        1
C       34.33890000      17.33950000       5.34962000        1
C        3.00155000      15.00270000       9.34685000        1
C       29.38290000      24.45710000       6.41229000        1
C        0.77550100      15.76070000       9.98028000        1
C        1.70051000      14.74110000       9.84275000        1
H       34.97690000      22.81730000       1.83051000        0
C       30.64740000      11.24240000       8.02573000        1
C       31.06790000      12.43910000       8.74639000        1
C       32.16400000      13.54200000       6.84189000        1
C       31.20650000      12.78680000       5.99640000        1
H       29.21460000      16.06210000      10.35610000        0
C       31.58550000      16.40890000      15.62430000        0
C       32.16730000      17.58460000      16.23000000        0
C       30.16590000      14.56960000      15.53430000        1
C       30.59220000      15.78310000      16.12680000        0
H       22.04440000      13.89400000      11.84250000        0
C        0.82855300      16.38660000      14.06550000        1
C        1.33926000      15.19700000      13.68700000        1
C        0.38486100      14.01340000      13.71360000        1
C       34.12200000      13.92360000      13.72700000        1
Cl       7.55781000      13.99010000       8.83354000        0
H       34.00680000      12.93450000      14.11690000        0
C        5.02442000      18.79380000      14.43200000        1
C        6.46825000      19.41560000      16.70040000        0
C        3.73816000      20.11610000      13.15590000        1
C        5.03886000      19.34640000      13.00220000        1
Cl      21.20560000       5.81751000       9.38867000        0
Cl      14.15260000      18.02340000      20.85530000        0
H       10.83460000       0.96045900      14.49710000        0
C        5.02616000      14.14470000      21.75140000        0
C        4.92838000      15.33830000      21.07270000        0
C        4.73292000      16.96670000       6.82229000        0
C        5.31519000      14.82380000       6.64846000        1
Cl      31.05010000      20.93120000       4.41702000        0
H        9.10029000      18.34160000      21.29510000        0
C        1.24801000      17.18530000      10.10800000        1
C        2.55888000      19.70620000      10.29440000        1
C        3.37608000      16.49650000       9.12682000        1
C        2.68981000      17.41840000      10.02150000        1
H        2.11672000      14.92280000      13.22700000        0
H       27.60280000      24.86410000       0.82252800        0
C       30.29580000      25.16560000       9.05193000        1
C       30.88130000       0.75837900       8.37296000        1
C       31.23440000       1.98963000       9.28835000        1
C       31.36500000       1.08334000      10.64890000        1
C       34.42890000      17.94300000      11.05300000        1
C        0.61340300      18.32880000      10.51180000        1
C       32.58050000      16.51420000      11.15820000        0
C       33.84550000      16.77370000      10.62160000        1
C       33.49700000      15.32050000      14.45790000        1
C       34.45330000      16.40440000      14.60420000        1
C       34.24200000      17.83160000      14.79680000        1
C       33.10310000      18.30460000      15.62370000        1
Cl      30.20480000      18.26980000      17.90820000        0
H        9.97768000      11.47360000      15.41310000        0
C       26.69130000       0.90824600       4.31293000        0
C       29.27230000       2.26701000      22.67910000        0
C        5.43597000      19.16110000      15.71850000        0
C       27.98830000       0.77112700       4.46636000        0
H        5.30275000      17.67550000      10.31250000        0
C        5.10083000      15.95640000       5.89186000        0
C        5.73102000      16.59120000       4.74961000        1
C        5.41757000      17.97400000       4.27428000        1
C        6.11317000      18.42460000       3.23712000        1
C       34.62350000      21.89190000       7.57385000        0
C       33.87200000      23.05080000       7.04533000        0
C        3.38956000      18.42390000      10.48820000        1
C        4.84076000      18.67810000      10.36360000        1
Cl       3.47125000      24.13850000      13.20160000        0
C       31.66980000       3.99991000      10.69460000        1
C       32.74410000       3.90340000       8.27555000        0
C       32.65570000       3.89815000       6.79752000        1
C       33.16630000       5.16756000       6.55051000        1
Cl       5.80155000       7.41347000      16.29360000        0
H        6.54463000      20.05730000      22.09380000        0
C       34.32610000       6.41951000       4.75341000        1
C        0.03074350       6.70674000       5.67108000        1
C        1.91430000      21.73420000      14.59010000        1
C       34.57680000       6.35827000       3.27480000        0
Cl      33.64170000      24.49680000       7.78130000        0
C       33.32280000      19.67270000      16.01500000        1
C       34.38850000      20.41880000      15.46690000        1
C       34.79810000      21.71930000      15.58170000        1
C        0.78130400      22.28300000      14.98900000        1
C       30.35500000       9.49509000      14.87120000        0
C        5.27634000       5.49160000       3.65437000        1
C        1.62481000       7.04188000      20.40510000        0
C       31.18650000       7.97672000      16.25400000        0
H        0.70659700       4.33895000       1.21361000        0
C        5.57489000      19.51680000       2.36075000        0
C        4.73489000      20.43950000       2.38040000        0
C        4.54395000      20.92430000       4.04911000        0
C        3.89699000      22.18770000       4.09588000        0
C        2.42946000      22.11590000       9.98464000        1
C        2.96648000      23.29110000       9.55064000        1
C        4.38422000      20.95000000       9.32087000        1
C        3.16560000      20.88540000       9.78282000        1
C       32.04060000       5.61889000      10.79840000        1
C       32.34890000       6.37660000      11.91170000        1
C       31.15120000       6.39804000       9.84099000        1
C       31.13460000       7.79977000       9.74392000        1
H        2.29838000       3.78795000      13.96790000        0
C       33.65300000       5.09084000       8.77205000        0
C       33.94100000       3.32218000      15.82100000        1
C        0.12685000       6.23322000       7.04530000        1
C       33.99330000       5.76266000       7.57305000        1
C        0.48495800       0.31832600      14.50790000        1
C       34.84890000       1.28778000      15.40290000        1
C       33.61760000       4.65853000      15.12490000        1
C        0.25014800       5.38425000      18.75810000        0
C        5.03177000       6.80535000       5.84600000        1
C        5.17425000       8.14590000       6.28017000        1
C        6.23916000       4.43552000       4.11983000        1
C        4.85979000       6.69653000       4.19294000        1
C        3.08367000      23.01950000       3.65131000        0
C       33.37330000       5.86575000      17.46380000        1
C       33.22570000       7.29511000      17.91960000        0
C       35.04850000      12.17210000      17.82750000        1
C        3.27106000       2.14638000       9.99477000        1
C        1.95142000       2.34070000      11.81100000        1
C        1.96033000       0.07040540      10.63010000        1
C        2.25609000       1.49737000      10.91920000        1
C       31.67300000       8.51387000      10.90200000        1
C       30.98040000       9.68012000      11.36550000        1
C       30.72700000      10.50680000      10.22110000        1
C       31.19770000      11.95070000      10.17440000        1
H        9.25448000      24.16840000       9.97122000        0
C       32.98260000       3.44846000      12.99310000        1
C       32.87880000       4.64640000      13.76610000        1
C       34.23550000       2.31371000      14.88600000        1
C       33.87500000       2.52823000      13.41870000        1
Cl      30.69490000      11.62060000       1.10619000        0
C        1.00752000       4.61554000      19.54300000        0
C       33.49170000       5.78678000      15.92860000        1
C       32.67570000       6.94908000      15.40110000        1
C       32.41670000       7.53329000      16.63790000        0
C        5.72399000      11.15170000       3.51140000        1
C        6.32082000      12.61600000       2.62886000        1
C        5.42664000       9.16534000       5.21217000        1
C        5.30068000      10.55760000       5.73785000        1
C        0.27424300      13.49590000      17.70760000        1
C        1.59816000      13.87720000      17.78390000        1
C        2.25335000      15.20190000      17.05570000        0
C        1.63274000      16.26790000      16.58760000        0
Cl      14.67170000      17.89020000      10.45370000        0
C        2.99530000       5.64735000      11.40660000        1
C        3.22112000       6.80903000      10.54450000        1
C        2.26286000       3.74952000      11.88880000        1
C        2.94796000       4.39472000      10.95000000        1
H       15.94490000       8.11480000       3.01712000        0
C       31.52300000      12.51420000      11.41910000        1
C       31.53830000      14.03470000      11.84870000        0
C       32.17630000      17.94360000      11.50360000        1
C       33.48090000      18.70210000      11.47420000        1
C       29.84430000       8.27938000      15.22730000        0
C       31.89780000       8.22175000      13.36790000        1
C       32.72510000       5.84987000      13.38180000        1
C       32.52660000       7.07018000      14.06060000        1
C        0.65669500       6.80686000      19.24870000        0
C        0.03597390       7.95188000      19.24450000        0
C       33.99680000       8.36845000      18.70080000        0
C       34.27010000       9.95734000      18.72630000        0
Cl      32.71330000      11.90210000      17.89460000        0
H        2.47391000       5.23762000      19.47480000        0
C        6.06966000      11.41570000       0.10917000        0
C        7.17407000      12.18350000       0.59914000        0
C        7.57383000      12.31710000       2.01994000        1
C        4.92914000      11.82610000      22.77560000        0
C        2.49402000      17.38660000      16.52120000        0
C        3.69203000      17.58220000      15.81190000        0
C        3.93127000      15.22260000      17.69300000        1
C        5.56549000      15.40060000      19.74540000        1
Cl       2.39708000      17.97960000      18.11740000        0
C        4.20637000      10.07740000       9.16382000        1
C        4.06679000      11.42720000       9.48885000        1
C        3.25231000       8.11359000      10.97520000        1
C        3.74147000       8.84177000       9.83968000        0
Cl       2.19725000       5.58615000       0.18706100        0
C       29.52870000      16.78420000       9.62940000        0
C       29.66440000      16.98760000       8.32921000        0
C       29.33560000      18.43370000       7.80552000        0
C       29.89110000      19.27320000       8.98012000        0
H        7.26549000      18.14770000       8.05671000        0
C       31.00960000      10.35260000      12.60720000        1
C       30.94630000      11.74140000      12.48700000        1
C       32.27820000       7.78658000      11.94760000        1
C       31.01670000       9.36086000      13.66280000        1
C       34.05490000      11.20170000      17.99880000        0
C        0.18272500      19.71790000      14.85440000        1
C        0.23974200      18.48590000      14.45770000        1
C        1.40638000      17.70110000      14.08330000        1
C        5.29934000      17.40640000      17.87420000        0
C        3.87611000      21.43360000      13.15950000        1
C        5.56150000      10.06610000       0.37628600        1
C        6.31750000      18.62120000      18.05000000        0
Cl       9.19200000      18.80000000       0.98315700        0
Cl       1.95455000      20.13870000       7.42551000        0
C        4.56005000      18.16160000      16.67240000        0
C        4.30218000      10.58470000      22.94670000        0
C        3.41860000       9.82412000      22.09890000        0
C        4.74016000      13.02930000      22.17080000        0
H        4.48368000      10.20890000      17.66240000        0
C        4.37778000      15.00270000       7.80893000        1
C        4.20690000      16.41700000       8.05693000        0
C        4.37204000      12.72520000       8.61045000        1
C        3.95311000      13.94790000       8.61873000        1
Cl       9.16386000      14.88850000      13.29570000        0
H       28.73100000      23.84570000       5.81486000        0
C       30.01110000      20.65170000       9.31282000        0
C       29.97530000      21.82040000       8.66920000        0
C       29.76520000      22.94400000       8.26035000        0
C       29.60660000      24.17410000       7.80516000        1
C       31.23510000      14.74300000      14.25550000        1
C       32.31290000      15.71870000      14.65280000        0
C       30.68030000      12.47190000      13.51720000        1
C       31.25670000      13.70920000      13.38240000        1
C        5.80568000      12.23720000      17.80990000        1
C        5.36862000      10.89400000      17.36280000        1
C        7.66532000      10.21930000      17.43180000        1
C        7.32336000      12.39590000      17.55550000        1
H        5.90871000      10.10040000      15.17820000        0
C        9.26369000       0.35718000      23.28420000        0
C        9.94360000      10.73870000      23.34610000        1
C       11.63320000       1.26395000      23.53570000        0
C       10.56650000       0.85337200      22.79610000        0
H        8.44690000      20.18420000      12.45700000        0
H        4.35299000       4.64137000      16.36000000        0
C        6.67088000      19.80650000       1.44335000        0
C        6.35065000      20.98950000      22.59050000        0
C        6.05892000      20.72580000       0.31909900        0
C        5.01980000      21.46830000       1.26956000        0
Cl      10.68590000      16.11200000       2.45849000        0
C       11.55250000       8.04331000      10.35000000        1
C       10.84280000       7.62446000       9.06357000        0
C        6.30775000      13.49210000       3.87649000        1
C        7.22309000      14.68840000       3.69262000        1
Cl      12.49240000      17.93300000       0.89646100        0
C       12.80820000      17.82280000       9.81887000        0
C       12.02830000      17.37520000      10.81110000        0
C       10.85550000      17.47990000       9.79586000        0
C        9.93877000      18.42570000       9.71741000        0
Cl       1.58511000      12.87080000      10.09520000        0
C        2.50617000      18.22640000      13.55320000        1
C        1.22561000      19.74280000      10.64050000        1
C        4.36858000      16.44250000      14.16460000        0
C        3.85146000      17.83250000      14.32350000        1
C        8.10964000      11.50590000      16.82870000        1
C        9.41351000      11.90370000      16.37110000        1
C       10.29610000      12.81380000      17.21280000        1
C        9.60959000      13.72350000      18.08230000        1
Cl       9.27748000       9.28548000      16.97410000        0
Cl      12.16480000      12.65860000      16.98570000        0
H        9.55177000      14.38030000      18.78810000        0
C       10.35630000       8.35557000      23.25830000        1
C       10.94180000       7.08013000      22.79700000        1
C       10.82630000       9.77421000       0.22716300        1
C       11.51100000       1.39086000       2.39915000        1
Cl      10.09450000       2.15827000       2.72798000        0
C        4.69762000      22.52160000       0.26238900        0
C        5.16953000      22.27530000      22.49600000        0
C        3.84460000      24.28340000      22.72920000        1
C        4.28481000      24.00300000       0.37402200        0
C       10.54060000       7.28171000       6.67179000        0
C        3.40863000       3.63204000       9.82379000        1
C       11.35240000       6.89944000       7.84389000        0
C       10.10720000       8.74540000       7.02996000        0
Cl       7.75700000       4.21063000       0.00481138        0
C       11.66640000      19.81520000       8.36801000        0
C       12.48270000      18.67860000       8.63405000        0
C        8.92174000      18.95850000       8.98346000        0
C        5.29950000      19.78500000       9.50181000        1
Cl       7.65652000      17.80550000      12.29960000        0
C        3.20011000      22.39120000      14.11310000        1
C        0.39526900      23.47610000      15.58780000        0
C        2.43281000      19.62350000      13.74740000        1
C        1.48277000      20.36330000      14.37390000        1
H        4.72376000      19.88750000       4.86913000        0
C        8.18564000      13.58440000      17.98310000        1
C        7.47439000      14.24100000      19.13100000        1
C        8.10453000      15.51120000      19.61390000        0
C        9.69729000      16.34850000      21.76960000        0
C        8.61836000      15.58610000      20.78730000        0
C       12.34060000      18.92520000      22.89340000        0
C       15.97370000       6.54254000      19.01270000        1
C       10.17060000      17.71550000      21.50670000        0
Cl       0.95949700      12.37600000      14.20990000        0
C        4.43049000      23.28390000      21.65550000        1
C        3.88201000      23.08470000      20.26250000        1
C        2.85844000      24.08590000      19.74820000        1
C        2.49048000      24.59910000      18.42190000        1
H        4.64190000      22.07550000      19.77820000        0
C        6.78722000       2.06874000       3.44487000        0
C        8.57787000       2.10500000       6.88262000        1
C        2.52419000       6.18654000       7.81593000        0
C        1.37130000       6.83767000       7.85765000        0
Cl      32.40180000      18.20740000       8.14735000        0
C        6.60591000      20.26000000       8.73206000        0
C        6.43735000      21.73830000       8.83335000        0
C        4.99845000      22.09440000       8.93674000        1
C        4.23635000      23.17090000       9.04457000        1
Cl       7.00324000      23.93560000      10.95510000        0
C        0.03625260       1.43586000      16.76660000        1
C       34.29950000       4.99177000      18.05910000        1
C        0.93312200      24.96920000      15.63110000        0
C        1.11474000       0.29948200      16.74890000        1
Cl      11.01060000      20.69540000       6.48343000        0
C       13.01930000      12.80610000       0.12855400        1
C       11.59430000      17.85970000      21.95520000        0
C       13.53720000      11.58910000      20.03120000        0
C        7.73642000       6.87084000      19.85060000        0
H        7.07782000       5.93306000      19.59520000        0
C       13.94950000      19.59840000      20.44510000        0
C       13.97400000      20.28650000      19.21600000        1
C       12.64300000      20.29590000      22.66760000        0
C       13.33100000      20.51700000      21.31650000        0
C        2.14863000       5.43512000      20.57460000        0
C       35.15850000       3.60968000       1.29371000        1
C        2.93515000       4.40767000      22.81110000        0
C        2.99147000       2.16964000      23.47180000        0
Cl       3.12674000      23.59970000      17.14840000        0
C        7.98475000       4.21660000       7.48165000        1
C        7.39907000       3.94790000       6.31468000        1
C        9.30964000       0.87988200       6.64318000        1
C        8.80956000       3.13713000       7.97189000        0
H        9.62022000       3.05054000       8.78393000        0
C        4.99746000      24.77950000       9.26400000        1
C        6.35747000      25.01690000       9.93383000        1
C        8.54208000       1.19818000      11.42090000        1
C        7.68333000       1.65342000      10.38530000        1
C        6.83177000       2.82918000      10.52040000        1
C       35.11780000       2.45004000      17.73450000        1
C       34.24140000       3.44992000      17.33690000        1
C        5.52825000       3.16400000       9.31440000        1
H       27.80890000       8.79410000      12.04790000        0
C        8.96812000       7.08369000      19.55400000        0
C        2.68378000       8.98830000      21.47070000        0
C        1.80394000       8.32045000      20.79500000        0
C        0.80387100       8.98227000      19.90490000        0
Cl      10.49690000       7.51862000      19.80520000        0
Cl       1.11276000       4.56042000      16.13420000        0
C       12.66720000      21.04520000      17.00940000        1
C       12.63040000      21.87830000      18.07590000        1
C       13.43490000      21.63450000      19.10880000        1
C       13.04180000      21.81410000      20.74420000        0
Cl      32.91370000       9.63235000       7.41469000        0
C        3.68760000       3.32703000       0.02730200        0
C        6.48079000       7.45551000       0.15819200        1
C        5.25503000       5.39211000       2.06915000        1
C       30.10600000      10.85190000      15.51180000        0
H       29.16490000      10.80030000      15.97200000        0
H        1.26394000       2.21306000      12.78920000        0
C        6.33114000       3.44529000       3.15901000        0
C        5.32651000       3.81227000       2.03301000        0
C        7.89253000       2.77793000       5.79536000        1
C        7.66055000       1.86606000       4.54816000        1
C        6.77711000       1.00190000       9.51997000        1
C        5.42641000       1.93583000       9.25527000        1
C        8.97480000       6.49285000       9.92877000        0
C        4.52498000       4.19565000       9.18750000        1
Cl      19.50760000       0.97153900      12.62080000        0
C        6.97225000       3.93713000      11.60770000        1
C        7.68616000       6.35714000      14.15070000        0
C        8.35365000       2.03183000      12.60470000        1
C        8.01603000       3.57226000      12.67980000        1
Cl      25.62190000       4.67565000       2.86814000        0
C        0.49614400      10.13300000      19.10370000        0
C        0.94385600      11.42980000      18.63040000        1
C        2.10511000      12.02700000      18.96540000        1
C        3.89518000      13.80060000      18.29390000        1
Cl      22.76590000      13.79180000      21.54490000        0
H        9.57714000       6.50973000      15.98660000        0
C       12.08460000      21.57000000      22.90370000        0
C        4.38062000       3.48015000       1.18922000        0
C       12.02600000      23.16380000      17.57070000        0
C       12.44830000      22.51090000      21.78810000        0
Cl      15.68200000      18.26310000      18.09410000        0
C        2.59765000       8.31901000      12.28470000        1
C        2.39545000       7.11215000      13.29810000        1
C        2.55643000       5.80871000      12.71210000        1
C        2.14554000       4.47713000      13.05140000        0
H        2.54365000       7.07593000      14.48980000        0
C        7.98830000       5.80290000       9.53411000        0
C        7.31448000       5.33162000       8.22734000        1
C        6.40885000       4.60314000       5.49868000        1
C        5.60688000       5.67136000       6.37451000        1
C        4.65150000       5.57399000       8.73650000        0
C        3.42859000       6.34914000       9.07964000        0
C        4.26560000       7.89295000       9.00020000        0
C        5.08254000       8.47248000       7.77198000        1
Cl       2.89699000       9.80338000      12.97340000        0
C        6.72598000       9.73804000      13.10810000        1
C        7.05193000      10.74050000      12.30940000        1
C        6.10760000       8.03990000      14.45560000        0
C        6.00490000       9.41094000      14.31650000        0
C        4.95709000      16.00200000      18.45800000        1
C        6.08097000      14.09050000      19.14430000        1
C        5.15960000      13.17930000      18.72170000        1
C        6.47842000       9.90205000      17.87600000        1
C        6.90310000      25.30890000       0.68537600        0
C        8.04611000       0.18915000      23.54170000        0
C        6.51280000       0.75761200       2.90376000        0
C        5.89096000       0.05053440       1.52229000        0
C        6.93264000      16.09130000       4.09097000        1
C        7.79160000      16.86410000       3.22429000        1
C        7.44319000      18.14740000       2.72477000        1
C        7.68657000      19.10300000       1.72923000        0
C        5.20661000      11.73710000       4.75670000        1
C        5.42825000      13.04810000       5.04068000        1
C        9.30723000       7.36093000      11.14160000        0
C        5.69988000       5.47415000       7.80814000        1
Cl      11.93980000      24.43310000      21.90470000        0
C        4.87307000       9.85934000       7.94805000        1
C        5.21666000      10.87960000       7.08919000        1
C        4.98490000      12.28760000       7.47501000        1
C        5.37862000      13.39820000       6.38217000        1
C        5.34553000      14.14110000      13.67800000        0
C        4.77154000      15.35070000      13.90460000        0
C        6.88756000      12.37390000      12.61970000        0
C        5.81331000      12.98170000      13.33260000        0
H        2.57036000       5.36601000       7.37631000        0
C       13.70470000       7.34838000      15.31640000        0
C       13.74610000       8.72606000      15.72870000        0
C        6.18356000      19.99280000      12.60100000        0
C        7.46056000      19.82650000      12.38760000        0
Cl       5.08577000      13.24380000       1.31162000        0
Cl       7.72935000      20.74370000      17.49440000        0
H        4.89647000      21.74760000      12.73030000        0
C        7.83855000       9.25704000      23.45460000        1
C       13.64860000      12.70220000      19.46470000        0
C        8.35747000      10.50030000      23.11820000        1
C        8.78831000       8.34871000      23.45580000        1
H       10.40330000       1.23216000      21.66560000        0
C       12.28330000       6.59757000      22.31470000        1
C       12.31740000       5.41460000      21.67460000        1
C        7.64817000      19.06500000       8.47572000        0
C        8.98187000      15.80080000       2.97266000        0
H       19.30900000      21.38240000       5.99450000        0
C       15.04970000      17.60120000       6.98582000        1
C       14.51030000      18.63870000       6.18206000        1
C       15.78770000      14.99880000       6.57650000        1
C       14.88240000      16.12470000       6.48519000        1
C        7.65806000       9.05027000      10.53630000        1
C        7.48129000      10.64130000      11.07630000        1
C        8.59904000      11.76080000      11.06870000        0
C        9.88607000      11.90540000      10.62800000        0
H       13.28430000      18.48630000       7.98498000        0
C       11.65480000      13.47480000      11.74100000        0
C       12.47970000      14.24150000      12.66370000        0
C        9.36812000      13.58920000      12.08170000        0
C       10.32510000      13.27140000      11.24620000        0
Cl      15.71540000       8.11613000       9.65045000        0
C       14.51550000      16.59040000      14.57350000        1
C       13.90630000      17.91870000      14.35880000        1
C       13.51940000      18.93500000      15.33340000        1
C       13.51010000      19.71450000      16.63470000        1
Cl      12.73820000      10.29770000      20.55760000        0
Cl      20.20430000      15.05360000      19.73780000        0
H       15.29780000      18.99840000      22.67250000        0
C       16.38950000      15.42690000      20.58050000        1
C       16.50750000      16.45010000      21.33240000        1
C       14.81470000      13.48030000      19.40300000        1
C       14.90540000      14.65650000      20.08690000        1
Cl       3.39860000      11.26710000      19.50540000        0
H       14.34230000      15.22610000      20.82670000        0
C        8.49825000      14.51700000       3.24973000        1
C       14.69300000      20.07700000       6.32955000        1
C       13.89100000      21.04630000       5.65732000        1
C       14.32260000      22.43920000       5.68091000        1
C        8.94683000      23.51680000       3.99285000        1
C        7.85023000      24.08750000       3.24399000        1
C        9.06735000      25.40390000       5.61402000        1
C        9.67953000      24.27450000       4.90762000        1
Cl      10.01340000      22.26410000       3.16845000        0
H        7.52545000      23.24540000       2.38027000        0
H       10.64830000      24.03230000       5.31166000        0
C       10.44150000      11.18100000       9.52792000        0
C       10.33620000       9.99961000       9.13010000        0
C       10.35790000       8.77727000       8.40171000        0
C        9.55808000       9.56608000       6.05787000        0
H        3.55776000      10.75020000      10.43160000        0
H       18.39330000      23.28080000      11.17890000        0
H       10.98270000      16.72780000       8.89886000        0
C       13.69490000      15.58400000      13.66320000        1
C       12.89110000      15.59350000      12.49950000        1
C       13.21920000      13.42550000      13.64420000        1
C       13.89000000      14.44010000      14.38430000        1
H       12.13230000      12.54230000      11.49520000        0
C       14.65110000      19.87340000      18.04380000        1
C       11.75550000      21.77870000      13.59840000        1
C       11.76940000      23.23250000      13.92750000        1
C       10.71530000      23.84400000      13.05420000        1
H        9.67337000      13.47510000      21.84440000        0
C       18.33790000      19.81400000      21.15310000        0
C       17.86690000      21.29300000      21.27450000        0
C       17.72250000      17.18040000      21.54990000        1
C       18.12170000      18.47730000      21.67120000        0
Cl      14.07620000       0.95567100      12.37700000        0
Cl      35.11990000      10.41860000      12.47970000        0
C       13.09880000      21.12520000       4.32954000        0
C       12.92340000      22.42250000       3.90402000        0
C       13.74750000      23.40780000       4.74646000        1
C       14.25450000      24.70980000       4.61192000        1
Cl      19.31460000      18.39470000       6.31929000        0
C       14.32370000       4.42432000       8.51830000        0
C       13.40380000       5.40673000       8.03723000        0
C        7.52463000      25.32300000       3.49456000        1
C        8.06658000       0.45903000       4.67062000        1
Cl      17.74970000       9.08392000      11.71790000        0
H       15.07390000       5.60265000      10.55420000        0
H        7.30269000      19.19200000      16.08000000        0
C        9.08820000      10.42140000       5.33362000        0
C        9.00082000      11.45460000       4.53869000        0
C        8.90571000      11.86120000       3.42284000        0
C        8.52854000      13.16130000       2.73185000        1
C       12.61070000      19.44920000      13.03640000        1
C       12.83770000      19.88450000      14.38540000        1
C       12.65120000      16.88850000      12.25070000        1
C       13.16880000      18.02650000      12.91280000        1
C       10.49870000      23.50490000      11.68560000        1
C        9.69141000      24.44300000      11.02790000        0
C        9.31008000      25.26600000      12.05810000        1
C       10.00030000      25.00820000      13.37830000        1
C       17.04670000      24.44830000      21.10650000        0
C       17.72910000       0.34955500      21.14940000        1
C       18.37260000      22.37930000      20.41810000        1
C       18.07670000      23.66190000      20.76240000        1
H       13.86680000      23.34350000       9.12596000        0
C       13.33690000      25.46020000       3.55626000        1
C       12.25320000       1.02666000       3.66298000        1
C       11.94290000       1.05861000       1.18131000        1
C       13.91980000       0.36093400       2.33706000        1
H       12.34900000      21.95010000       3.10934000        0
C       16.25280000       2.28112000      10.48560000        0
C       18.77210000       5.03431000       5.97819000        0
C       15.15860000       3.66738000       8.84638000        0
C       16.06950000       2.74337000       9.11548000        0
Cl      27.47940000       0.86868100      10.10450000        0
H       19.87830000      24.91300000       7.50346000        0
C       16.19400000       3.82854000      14.05190000        0
C       16.85490000       2.65769000      14.20050000        0
C       17.26420000       2.11008000      12.80230000        0
C       17.37040000       1.08550000      10.49660000        0
Cl      21.05830000      25.40980000      10.11010000        0
C       12.02260000      22.97960000      16.31820000        1
C       11.99740000      23.74470000      15.10030000        1
C       12.36230000      21.12530000      14.67850000        1
C       12.16540000      21.68300000      15.94970000        1
H       12.24080000      24.75560000      15.03210000        0
C       10.07690000       0.80215600      13.83050000        1
C        9.08497000       1.60926000      13.77500000        1
C        9.38167000       2.79015000      14.56190000        1
C       10.27490000       3.01692000      15.54330000        1
H       10.96210000       2.10161000      16.10380000        0
C       15.68990000       2.79227000      17.94430000        1
C       15.03640000       2.94304000      16.87170000        1
C       16.50980000       2.28771000      22.58150000        1
C       13.11370000       2.20658000      21.74820000        0
H       15.46970000      20.64520000      17.89840000        0
C       13.48300000       1.31643000       1.49665000        1
C       14.15480000       1.78971000       0.32978500        1
C       12.96260000       1.53787000      22.85390000        0
C       13.82240000       3.26192000      21.51720000        0
C       16.05640000       6.45001000       4.15780000        1
C       16.51680000       7.85932000       3.96623000        1
C       18.29770000       6.18355000       5.68105000        1
C       16.79600000       5.88159000       5.21958000        1
Cl       9.76254000       6.13942000       5.57801000        0
Cl      16.94980000      10.45790000       8.26069000        0
C       18.02640000       1.12820000      12.03440000        0
C       16.26500000       2.79250000      11.91060000        0
C       15.50900000       3.81580000      12.62380000        0
C       14.76760000       5.03940000      12.62680000        1
Cl       1.37242000      17.99040000       0.32206600        0
H       17.79220000       2.59487000      15.04270000        0
C       14.61780000      11.00950000      15.78670000        0
C       13.83390000      10.00080000      14.98190000        0
C       14.31470000       9.19692000      16.89330000        1
C       14.87060000      10.34190000      17.02230000        1
Cl      11.71440000      10.56640000      13.34710000        0
H       22.01980000       4.36068000      14.21990000        0
H        6.55004000       9.05180000      18.49870000        0
C       10.13650000       4.34820000      16.11620000        1
C        9.25052000       5.37933000      15.71500000        1
C        8.39198000       5.23671000      14.49570000        1
C        8.62314000       3.93915000      14.09970000        1
Cl      11.48370000       5.10802000      16.58760000        0
Cl      11.96970000      20.01340000       3.78677000        0
Cl       5.54462000       4.27632000      16.11090000        0
C       15.02550000       5.48159000      16.99800000        1
C       15.48940000       5.21934000      18.31860000        1
C       15.48490000       4.76797000      14.84990000        0
C       15.24760000       4.26260000      16.14820000        1
H       18.37800000       7.60107000      21.25020000        0
C       13.42360000       4.62660000      21.62440000        1
C       14.69690000       5.26262000      21.78540000        1
C       14.68170000       6.53299000      22.32470000        1
C       15.68360000       7.07472000      23.37340000        1
C       19.30430000       8.63919000       6.14058000        0
C       18.50910000       9.98720000       5.91774000        1
C       17.84330000       8.35974000       4.53256000        1
C       18.76570000       7.55139000       5.31524000        1
C       14.47360000       5.82838000      11.31670000        1
C       13.38840000       6.51761000      11.37450000        1
C       12.61760000       6.79561000      12.82900000        1
C       11.43630000       7.52834000      12.87750000        1
Cl      15.85640000       0.91863900      18.04170000        0
H       14.32160000       7.11533000       3.60078000        0
C       14.74050000      12.24600000      15.26250000        1
C       15.52490000      13.30880000      15.47570000        1
C       13.16370000      10.75290000      13.92910000        0
C       13.68690000      12.21740000      13.98410000        1
C       13.97700000       8.31095000       9.77852000        0
C       12.99700000       7.78036000      10.50950000        1
C       14.26000000       5.46576000      13.88530000        1
C       13.53350000       6.61047000      14.08480000        1
C        8.68916000       5.70983000      23.08380000        1
C        8.18501000       7.02286000      23.44620000        1
C       10.79950000       4.99126000      21.75920000        0
C        9.93748000       5.92204000      22.50640000        1
H        0.71605800      16.49110000      16.62680000        0
C       18.08030000       9.69082000       4.59778000        1
C       15.25230000       8.25117000       0.12231900        0
C       13.81000000       8.41945000      23.26060000        0
C       13.54100000       7.24983000      22.46210000        1
Cl      22.11550000      13.41090000       2.78676000        0
C       16.83850000      12.97680000       6.68916000        1
C       15.66260000      13.62730000       6.17863000        1
C       17.80200000      10.69130000       6.66951000        1
C       17.11570000      11.74820000       6.11154000        1
C        7.11821000       7.28776000      13.53000000        0
C        7.33311000       8.51138000      12.69450000        1
C       10.82880000       7.86035000      11.48580000        1
C        8.14521000       8.18734000      11.53690000        1
H        8.66431000       9.06014000      10.01590000        0
C       16.67320000      16.17960000      16.08650000        0
C        8.12126000      12.75790000      11.96910000        0
C       14.96370000      14.63580000      15.18420000        1
C       15.41080000      15.89650000      15.37580000        0
H       13.38140000       9.01446000       9.18918000        0
C       15.67150000      10.41480000      18.30270000        1
C       16.29990000      11.56470000      18.87630000        1
C       16.11510000      13.02810000      18.77040000        1
C       17.22690000      13.67850000      19.44140000        1
C       14.07330000      12.59550000       0.87235900        0
C       12.55790000      14.15600000      23.22810000        1
C       11.20850000      14.35270000      22.89890000        1
C       10.84690000      15.67830000      22.17620000        0
C       16.89300000      11.67100000       4.70012000        1
C       14.88800000      12.86220000       5.06397000        1
C       15.70420000      12.11480000       4.00651000        1
C       16.83280000      15.21420000       7.46738000        1
H       18.31490000      13.64510000       8.19401000        0
C       22.19220000      17.08210000       7.21882000        1
C       21.69760000      18.49100000       7.90487000        1
C       19.98260000      14.88800000       9.76642000        1
C       20.51700000      16.24600000       8.99494000        1
H       13.48340000      18.34080000       5.81341000        0
C       17.51450000      13.88240000       7.59061000        0
C       18.08260000      17.15700000       9.24325000        1
C       18.03200000      18.46510000       9.63164000        1
C       17.46630000      19.47500000       8.94637000        1
C       18.30020000      20.52590000      12.68510000        0
C       18.51600000      21.87740000      12.94740000        0
C       18.09750000      18.57300000      11.08940000        1
C       18.26090000      19.96100000      11.48300000        1
H       11.96750000      19.88500000      11.09090000        0
C       17.63350000      14.88680000      19.80220000        1
C       18.87390000      15.46730000      20.34920000        1
C       18.93800000      16.24480000      21.68760000        1
C       19.58370000      18.02570000      21.94300000        0
Cl      18.34920000       6.82178000      14.56050000        0
C       14.44890000      15.99220000      22.78770000        0
C       15.69220000      16.62260000      22.61540000        0
C       13.07470000      15.54220000      22.69090000        0
C       11.98150000      16.38040000      22.24450000        0
C       17.19380000      16.62050000       8.24590000        1
C       16.67400000      17.85450000       7.63146000        1
C       16.59380000      19.19430000       7.80275000        1
C       15.67050000      20.35000000       7.27525000        1
H       19.86170000      15.10910000       2.11713000        0
C       21.75710000      21.88270000       7.72701000        1
C       22.39810000      22.16770000       6.44661000        1
C       22.37190000      19.71300000       7.75070000        1
C       21.49260000      20.71490000       8.48087000        1
Cl      27.75550000      21.29170000       4.75038000        0
C       18.16020000      21.05540000      10.37930000        1
C       18.01900000      22.30200000      11.48810000        0
C       17.19720000      20.78270000       9.47165000        1
C       16.64940000      22.00480000       8.79089000        1
H       19.17140000      23.55430000       8.94909000        0
H       16.27400000      22.78460000       9.33106000        0
C       18.74860000      21.02440000      16.62610000        0
C       18.67520000      20.20140000      17.63650000        0
C       18.56460000      22.02740000      14.34230000        0
C       18.72850000      22.04770000      15.72930000        0
C       20.03550000      18.46490000      20.59090000        0
C       20.92890000      17.87540000      19.96680000        0
C       21.93450000      17.16710000      19.27610000        0
C       19.15840000      19.68640000      20.06550000        0
H       21.82720000      19.54050000      16.97670000        0
C       16.33210000      19.17490000       2.25760000        0
C       15.75650000      19.90330000       1.31804000        0
C       16.05640000      17.63720000       0.55809300        0
C       16.66040000      17.58690000       1.75604000        0
C       15.67960000      21.77420000       7.66012000        1
C       15.12370000      22.79420000       6.89808000        1
C       15.46680000      24.24610000       6.60901000        1
C       14.93710000      25.04350000       5.70668000        1
Cl      24.62690000       4.01353000       6.70771000        0
C       21.63650000       0.46471200       5.58036000        0
C       21.03270000       1.78869000       5.73140000        0
C       22.31750000      23.54180000       5.90897000        1
C       21.92250000      24.82550000       6.40859000        1
C       11.37700000      22.44620000      11.34940000        1
C       12.19940000      22.86750000      10.14670000        0
C       12.84250000      23.81860000       9.52501000        0
C       13.52310000      24.70960000      10.35250000        0
H       11.74610000      20.50420000       9.56399000        0
C       23.57760000       0.66936500      17.98400000        1
C       22.88980000       2.02758000      18.44990000        1
C       22.87570000      22.46130000      18.05230000        0
C       22.77350000      24.87370000      18.58000000        1
C       19.32130000      20.31530000      18.83690000        0
C       19.11560000      22.17000000      19.34570000        1
C       20.35640000      22.72470000      18.98680000        1
C       20.33010000      24.29560000      19.41540000        1
C        3.92967000       0.03003180       9.30818000        1
C        2.55156000      24.73500000       9.70463000        1
C       15.39560000      18.82250000       0.12346500        0
C        4.03024000       1.42890000       9.17297000        1
C       12.55200000       6.20744000       7.93863000        0
C       16.19680000       1.00340000       4.94775000        0
C       15.72300000       2.23258000       5.12525000        0
C       14.80230000       3.65412000       3.63351000        0
H       15.06700000       3.23966000       2.70985000        0
C       23.04920000       2.04692000       1.64965000        1
C       24.35200000       1.97988000       2.46612000        0
C       22.76140000       4.22778000       0.13381200        1
C       22.23390000       1.21091000       2.67362000        1
H       25.99840000       4.05456000       1.76450000        0
H       23.76670000       3.97951000       0.35495300        0
C       11.92310000      20.18380000      12.16990000        1
C       11.51830000      21.41350000      12.29650000        1
C       13.76460000       0.21368600      11.02600000        0
C       14.10670000       4.97668000       3.23938000        0
C       19.85290000       6.08172000      18.70860000        1
C       18.76940000       5.24924000      19.22980000        1
C       21.55250000       2.45465000      19.05430000        1
C       21.01490000       3.70298000      19.20570000        1
Cl      19.18520000       7.67034000      18.34120000        0
C       19.20880000      24.35140000      20.16460000        1
C       18.83810000       0.40506800      20.30930000        1
C       19.69440000       1.45483000      19.82380000        1
C       19.08740000       2.74973000      19.72690000        1
Cl      16.02660000      22.59660000      11.31140000        0
C       18.17580000       9.17636000       1.02902000        0
C       16.94500000       9.61096000       1.63574000        1
C       15.34980000      11.50920000       2.84379000        1
C       16.44170000      10.46960000       2.71327000        1
C       15.59860000       0.51328300       2.40110000        1
C       16.61090000       0.53993000       3.65816000        1
C       17.76590000      25.27890000       3.57260000        1
C       18.28540000      25.34470000       2.13003000        1
Cl      16.87010000      16.28860000       2.65382000        0
C       24.08390000       6.08805000      10.68340000        0
C       22.86670000       4.33961000      11.92530000        0
C       23.56910000       6.65025000       2.47326000        0
C       22.28950000       3.09881000       1.10952000        1
C       12.78460000       4.86512000       2.69969000        0
C       11.84140000       5.03473000       1.92763000        0
C       17.69830000       4.21534000       6.41393000        0
C       16.50400000       4.47457000       5.38771000        0
Cl      10.10140000       0.12173900       7.80793000        0
H       11.29190000       5.52610000       1.25285000        0
C       18.44740000       9.87997000      21.75450000        0
C       17.41230000       7.56926000      20.55340000        1
C       17.65130000       5.31022000      20.00800000        1
C       16.81390000       6.50718000      19.98820000        1
Cl       1.09254000       8.01669000       5.20399000        0
C       19.63940000       3.95479000      19.12170000        1
C       17.75510000       2.90120000      20.66310000        1
C       16.82340000       4.07046000      20.04550000        1
C       15.90480000       4.06545000      18.87770000        1
Cl      11.07550000      22.10220000       0.70316500        0
Cl      26.18330000      16.24570000       0.44684900        0
C       13.56330000       9.70074000       0.32570100        0
C       12.20030000      10.30340000       0.35537900        0
C       15.86800000       9.28401000       0.80886700        1
C       14.70150000      10.32090000       0.97108700        1
Cl      11.25830000      24.65090000      18.35790000        0
C       17.79770000       1.09820000       1.38372000        1
C       20.77160000       0.71358100       2.02291000        1
C       20.20120000       1.91699000       1.34800000        1
C       18.84160000       1.99510000       0.69486100        1
Cl      20.51230000      22.81170000       0.02329570        0
H       14.29280000      18.42860000       0.39330000        0
H       18.97680000      24.76610000       5.60897000        0
C       20.66210000       8.77442000       6.37900000        0
C       20.86600000      10.32800000       6.78446000        0
C       22.57460000       4.70594000      13.21280000        0
C       21.13360000       5.26538000       7.49916000        0
Cl      21.59190000      10.14950000       3.53839000        0
C       15.58550000       3.56983000       4.69852000        0
C       14.66810000       6.02693000       3.81451000        0
C       21.20960000      11.44030000       4.58185000        0
C       21.67950000      12.70120000       4.29725000        0
H       20.66590000      10.32330000       7.81593000        0
C       17.34850000      11.30700000      19.85870000        1
C       18.17150000      12.51080000      19.70050000        0
C       17.00170000       8.89796000      20.07980000        1
C       17.64900000      10.09420000      20.62910000        1
H       19.10310000      12.45270000      20.31180000        0
C       14.26110000       6.69072000      16.58590000        1
C       14.55760000       7.74103000      17.38210000        1
C       15.70880000       7.77818000      18.37890000        1
C       16.14440000       9.12899000      18.88690000        1
C       10.54160000      11.89920000      23.25780000        1
C       10.26720000      13.17030000      22.79980000        1
C       12.06580000      11.77070000       0.29711700        1
C       14.54170000      11.53350000       1.67602000        1
C       20.89770000       3.09628000       0.92667400        1
C       22.52440000       6.76652000       3.18574000        0
C       16.87810000       4.71220000      22.57250000        1
C       17.31710000      10.57950000       3.82495000        1
Cl      14.40710000      16.36300000       4.72166000        0
C       20.65080000      13.82500000       7.42823000        1
C       20.08430000      13.88200000       8.76613000        1
C       21.14410000      11.32310000       6.00736000        0
C       21.27170000      12.89600000       6.42927000        0
C       21.12860000      13.56980000       5.22586000        0
C       21.18150000      14.96620000       5.44772000        0
C       20.88820000      15.10650000       6.76889000        1
C       21.05020000      16.30650000       7.62687000        1
H       21.62660000      15.41820000       4.49744000        0
C       18.75060000      16.30740000      12.84270000        0
C       18.24540000      17.08950000      11.53040000        0
C       17.91470000      16.27450000      15.37350000        0
C       18.62810000      16.35210000      14.35200000        0
Cl      16.93790000      15.89800000      17.69760000        0
