1226
Lattice="33.26586380673372 0.0 0.0 0.0 24.09420239954769 0.0 0.0 0.0 22.29195777038035" Properties=species:S:1:pos:R:3:momenta:R:3:ring:I:1 pbc="T T T"
C       20.93820000      17.41360000      15.42190000      -0.23222681       0.52927933      -0.14981874        1
C       21.40570000      16.16220000      14.85600000       0.61208481      -0.48490218      -0.53470970        1
C       22.06370000      16.02590000      13.66060000      -0.67948936       0.47072526       0.72478604        1
C       22.37180000      17.15190000      12.97020000       0.03125195       0.68049326       0.50499736        1
C       27.12910000      11.51500000      19.11240000      -0.04647581       0.06628155       0.44192634        1
C       24.78670000      18.02990000      18.75840000       0.07648346       0.34232108       0.61591456        1
C       26.77430000      13.97650000      18.67830000       0.11628398       0.09491614      -0.26840644        1
C       27.33910000      12.87990000      19.34230000      -0.18247309      -0.58817823       0.52606342        1
C       21.44790000      17.24510000       2.57111000      -0.86999246       0.71584996      -0.19397824        1
C       21.55060000      15.18970000       4.01123000       0.35322339       0.75543504      -0.63292955        0
C       15.52260000      16.80000000      21.29080000      -0.09287373       0.71220608       0.71882132        1
C       16.36250000      14.54110000      21.45010000       0.93103244       0.55589193      -0.81263304        1
C       22.89390000      19.78020000       4.53275000      -0.11185177       0.29383172       0.04814075        0
C       22.78860000      20.45410000       3.33145000      -0.62186216       0.83251790      -0.81004931        1
C       22.50510000      19.09960000       6.66682000      -0.44132962       1.03807587       0.60924429        1
C       22.77540000      20.23210000       5.81818000       0.00603963      -0.64382697      -0.59082188        1
H       24.97910000      13.24960000       4.19203000      -0.05207375      -0.11404823       0.11340481        0
C       16.60290000      17.45880000       9.16588000      -0.15836720      -0.39070284      -0.41886470        1
C       20.44180000      18.49810000       9.44917000       0.35857306       0.15280110      -0.76831581        1
C       19.55370000      19.63560000       9.46486000      -1.00660150      -0.80409681       0.50836612        1
C       20.18540000      20.85600000       8.88639000      -0.58137223       0.50677772      -0.30526349        1
C       23.26120000      17.26290000      11.90610000      -0.22848388      -0.41261996      -0.43880702        1
C       23.36130000      18.68240000      11.57130000      -0.37117748      -0.35628646      -0.12575320        0
C       23.48310000      14.87110000      12.19160000      -0.32496738       0.31873242      -0.42881568        1
C       23.81460000      16.03780000      11.44140000       0.08290807      -0.60685253      -0.56794977        1
C       21.84170000      18.35650000      13.40650000       0.43292423       0.69726125      -0.26411081        1
C       20.94240000      18.56200000      14.50340000       0.25714096      -0.73186350       0.31400271        1
C       20.64320000      19.94150000      14.86650000       0.35896068       0.51731442       0.40242808        1
C       23.34110000      17.91820000      18.41380000      -0.51801141       0.45098347      -0.49500724        1
C       29.08380000      20.42810000       0.32193600       0.58300586       0.74592058       0.17820070        1
C       25.28700000       0.35314100      20.94510000       0.43615970      -0.90565607      -0.67830326        0
C       22.72370000      14.06470000      15.53810000       0.83031812      -0.12604911      -0.52833045        1
C       24.06460000      22.37860000      20.60650000       0.22946455      -0.72477259      -0.24554167        1
C       22.03280000      21.17020000       0.65823800      -0.29822272       0.21433264      -0.26269483        1
C       21.91160000      19.78310000       1.17892000      -0.69129898       1.15134325       0.27771302        1
C       21.00090000      18.74120000       0.55457000       0.75865340      -0.12286377      -0.56784461        1
C       20.82930000      17.61760000       1.36496000      -0.64520260      -0.85735135      -0.69814043        1
C       22.04580000       0.08832930       4.10961000       0.14454244      -0.14053784      -0.26104408        0
C       22.92570000      22.69200000      21.40270000      -0.59725982       0.54838772      -0.38086924        1
C       22.37480000      19.51350000       2.41098000       0.04953936      -0.41683366      -0.43362488        1
C       22.68110000      22.88400000       3.92898000      -0.16144005      -0.80201931       0.53619049        0
Cl      27.61070000       0.41575900      11.92510000       0.63843381      -0.50481820       1.15644647        0
C       19.58370000      22.14080000       9.03716000      -0.52486632       0.11569937      -0.08413415        1
C       20.14750000      23.32150000       8.43780000       0.25636450      -0.11556939       0.10153370        1
C       21.22980000      23.16350000       7.58060000      -0.50208958      -0.26503279      -0.86096956        1
C       21.36450000       0.14333900       6.52603000      -0.43962262       0.90887810      -0.39296009        1
C       32.41600000      23.18800000      15.76970000       0.27793557       0.23352907      -0.12765217        1
C       23.10240000      22.97170000      10.25240000      -0.08109407       0.04356535      -1.08303262        1
C       32.75850000      21.71010000      15.98510000       0.57389615       0.77148159       1.70720950        1
C       23.27800000      21.64190000      10.73870000      -0.00675452       0.40061592      -0.33691884        1
C       21.00840000      18.42690000      17.80690000      -0.44413590       0.18821527       0.33805358        1
C       22.12190000      18.69870000      18.72500000       0.70283224      -0.15740487      -1.09505377        1
C       19.44300000      20.42010000      17.17500000      -0.05346180      -0.21947443      -0.36086699        0
C       19.61030000      22.00560000      15.13330000       0.08449218      -0.75888206       0.00174560        1
C       18.21620000       8.12611000      19.49540000      -0.24453777      -0.03778196      -0.46476543        0
C       19.08540000       7.15665000       2.89149000       0.42854300       0.22817941       0.62659065        1
C       24.32380000       1.33359000      21.32490000       0.10776499       0.75049745      -0.05305853        1
C       21.68640000       5.65407000      21.46990000       0.06893890       0.81970927       0.11107628        1
H       18.29420000      23.68130000       0.67644800       0.10408696      -0.21127507       0.14558012        0
C       19.93610000      15.58330000       2.04306000       0.08827754      -0.39629217       1.54505657        0
C       21.04000000      15.91820000       2.92845000      -0.40493478      -0.14679725      -0.22247391        0
C       16.46650000      15.91650000      21.93230000      -0.36305455      -0.59046116       0.22273559        1
C       19.81120000      16.62900000       1.02790000       0.49365851       0.61036802      -0.90700847        1
C       26.52380000      22.47410000      20.74570000      -0.46584881      -0.63525161       0.38459872        1
C       27.33900000       7.56698000       3.67129000       0.95100533       0.21385698       0.84648328        0
C       22.62430000      21.91130000       3.00071000       0.26121649      -0.01929218      -0.73944963        1
C       25.25210000      23.11440000      20.66220000       0.33336421       0.27384292       0.77403475        1
H       23.05920000      11.03790000      15.58770000       0.21480621      -0.01633446       0.10553492        0
C       20.26460000       2.14130000       5.37689000      -0.21022654      -0.66276662      -0.47815610        1
C       19.41050000       3.15072000       5.87718000       0.15903239       0.10032927      -0.15016112        1
C       18.88240000       2.63308000       7.17366000       1.08938741      -1.21962821       0.05133551        0
C       18.71260000       3.58575000       8.16731000      -0.27694634      -0.48151997      -0.04624703        0
C       21.54040000      22.78030000      11.93200000      -0.13221070       0.03273445       0.31510932        1
C       20.54110000      22.92450000      12.93540000      -0.39186570       0.04941036       1.36278891        1
C       30.79330000      20.58990000      12.32580000       0.47000382      -0.71683797       0.35758138        1
C       22.31650000      21.67380000      11.85140000       0.74775964       0.55491982      -0.34694686        1
C       18.18590000      23.56440000      16.59090000       1.21812786       0.09997845       0.09370717        1
C       17.65980000       0.81111500      16.62820000      -0.08009567      -0.41855655       0.65838050        1
C       20.31710000       6.95027000      19.40990000      -0.13041444      -0.02055213       0.62666280        1
C       17.96210000       8.14825000       0.94091800      -0.49565776       0.21968964      -0.33501497        1
C       15.44410000       1.56988000       0.36735800      -0.11822943      -0.89968157      -0.02825479        1
C       19.93750000       7.17292000      20.74320000       0.00562632       0.09231736       0.53797208        1
C       22.33020000      21.40080000      21.60250000      -0.51399824      -0.02731838       0.39425012        1
C       14.34400000       1.29393000       1.23953000      -0.13483846      -1.06709612      -0.11671269        1
Cl      16.42670000      13.17510000       0.25233400       1.25252859      -1.62163075      -0.41950169        0
C       17.59170000      16.42580000       0.05259890       0.13467460      -0.40695848       0.36435681        0
C       18.59830000      18.24190000      20.13730000       0.20751686       0.32511411       1.67761821        0
C       19.22220000      17.93680000      21.31970000      -0.11224685       0.50540454      -0.18831432        1
C       16.73500000       1.08556000       0.91638400      -0.05961031       0.23082795       0.05623152        1
C       28.15760000       9.39631000       5.24911000      -0.30709033      -0.23579488       0.18984768        1
C       28.27960000      10.56680000       4.41517000      -0.37081187      -0.03538800      -0.63660156        1
C       27.12020000       4.36076000       2.71795000       0.61033990       0.07572130      -0.01567959        0
C       27.72070000       8.13892000       4.94498000      -0.20987316      -0.33521795      -0.98543517        1
C       18.95460000       4.61222000       8.82012000      -0.43135540       0.23745664       1.23724603        0
C       18.06880000       5.34910000       5.59770000      -0.04278142      -0.05308518      -0.20265509        0
C       19.15210000       4.38963000       5.15392000      -0.10866814       0.32071455      -0.34135631        1
C       21.15730000       4.48161000       1.25737000      -0.49593411      -0.26159311      -0.81688465        1
Cl      14.10550000       6.52964000       3.44032000       0.83478809      -0.31100537      -0.58821833        0
C       18.87220000       2.06539000      13.30830000      -0.29626383       0.24875269      -0.63293933        1
C       18.82640000       3.41749000      13.51500000      -0.15671644       1.08843364      -0.56134675        1
C       19.62910000      24.02760000      13.07710000      -0.17176643      -0.85601118       1.03710376        1
C       19.75210000       1.23217000      12.51840000       1.00099138       0.33921399      -0.24753480        0
C       11.04520000       8.03238000       5.77085000      -0.36750914      -0.22359887       0.52822774        0
C        9.31581000      11.96020000       5.62824000      -0.28242317      -0.47183066       0.20795095        0
C       13.71970000       4.02861000      20.38840000       0.01761843      -0.33624508      -0.03922472        1
C       15.94750000       2.18086000      20.30420000      -0.15267515      -0.30750974      -0.16179098        1
C       20.12270000       4.84466000      11.68370000      -0.87772287      -0.40258826      -0.04247842        1
C       26.35830000       4.72738000      14.72690000       0.05254826       0.82176966       0.75200636        1
C       18.74130000       5.73835000      13.45630000      -0.02689542      -0.16728005       0.26002184        1
C       19.32280000       4.59318000      12.82400000      -0.08625983       0.12957072      -0.41228858        1
C       16.94290000       0.98735600       2.35670000      -0.62718737      -0.21095777      -1.02388672        1
C       14.97010000      23.78500000       6.55384000      -0.43266500       0.62223511      -0.06565096        1
C       21.90130000      19.62760000      19.85050000       0.29997864      -0.73627162      -0.24957929        1
C       16.72910000       0.86273200       5.77117000      -0.32398426       0.56386813       0.13706636        0
C       28.50210000      10.28440000       0.67353500      -0.93323711       0.62601717      -0.16933676        1
C       21.03910000       7.51493000      16.92480000       0.31123066       0.98328552       0.45052860        1
C       28.36510000      10.78620000       3.04096000       0.20019118      -0.63490434       0.25826470        1
C       28.94140000      10.03980000       1.99849000      -0.39441642      -0.12556611      -0.09325952        1
C       25.70650000       2.41238000       5.82911000       0.35636961       0.17312738      -0.29901142        1
C       21.57870000       6.47472000      19.07910000      -0.72110914      -0.84430795       0.30326180        1
C       18.04600000      15.65850000       9.19923000      -0.64044720       0.15236457      -0.30838647        1
C       22.29920000       9.69332000       8.87010000       0.05838850       0.62150144      -0.30503239        1
C       18.99580000       7.08577000      13.01980000      -0.45485602       0.95611900      -0.23202750        1
C       20.41110000       8.80577000      11.95150000       0.07137419       0.71159346       1.09381876        0
C       17.97210000       3.87371000      14.56240000       0.28651582      -0.54779223       0.15187790        1
C       17.86790000       5.25064000      14.49200000      -0.59832608       0.86364745       0.27578714        1
C       15.11220000       5.69985000      18.84230000       1.06439500       0.16842579      -0.29634820        0
C       21.05730000       3.27049000       1.92526000      -0.63473682       0.93680274       0.48322453        1
C       26.54600000       1.40735000       5.34048000       0.96985694      -0.09034245       0.99851647        1
C       18.71240000       7.82287000      20.78830000       0.14081541       0.32050056      -0.79697901        0
C       27.02820000       7.88242000      18.68050000      -0.05850895       0.14631425       0.22887639        1
C       26.21200000       8.56533000      17.78480000      -0.87946534       0.17233257       0.67263445        1
C       25.80520000       6.01106000      15.08890000       0.16028452       0.86410844      -0.38748815        1
C       26.86530000       5.75572000      17.31580000      -0.48586818      -0.61767291       0.41300513        1
C       17.03310000       8.90141000      19.61780000      -0.16172251       1.06914550       0.52490789        0
C       14.66890000       0.04752070       5.22785000      -0.16022216       0.02053672      -0.51130324        1
C       20.38380000       5.54820000       1.72980000      -0.41792438       0.46708749       0.03430768        1
C       19.01470000       7.39771000       1.55085000       0.63480285      -0.23190033       0.18044206        1
C       22.23850000       5.70873000      20.12820000      -0.01039121       0.68784340       0.71188815        1
C       25.83390000       3.89378000       5.86070000       0.96706900       0.94058480      -0.00477715        1
C       26.47530000       5.61874000       2.19317000       0.64369491       0.51651106      -0.19747172        0
C       25.71660000       5.47188000       1.04293000       1.05578540      -0.93349512       0.23977137        0
C       21.90690000       8.60503000       9.71553000      -1.00758339       1.17145065       0.46850714        1
C       21.23500000       9.18277000      10.82040000      -0.20096643       0.47275630      -0.47696389        0
C       21.14020000      10.54310000      10.63490000       0.57448920      -0.03759292      -0.62365965        1
C       21.61880000      10.97730000       9.40137000      -0.50420989       0.66648998       0.10945842        1
C       20.21160000      12.85040000       9.94978000      -0.04409188      -0.69210601      -0.45052126        1
C       19.91480000      12.49810000      11.30550000      -0.20889860       1.32052961       0.04585476        1
C       19.91110000      10.14000000      12.48580000       0.05397011       0.62726196       0.33357575        0
C       20.34100000      11.18200000      11.61230000      -0.53994442       0.39137659      -0.07190977        1
C       19.97030000       6.56270000       0.80012900      -0.08616751      -0.50350312       0.31521815        1
C       19.39670000       7.68244000      18.61230000      -0.46262923      -0.54423883      -0.19256226        1
C       15.16690000       2.29552000      21.45810000       0.34557734       0.48710930      -0.11859247        1
C       19.53510000       9.49038000      17.00530000      -0.04773747       0.66961296       0.33452952        0
C       25.54070000      12.34340000      17.48410000       0.01391598       0.43168066       0.88602678        1
C       25.77760000      13.65560000      17.74710000       1.34272308      -1.29696663       0.96205438        1
C       25.73320000       9.96847000      17.60610000       0.34325528      -0.15590085       0.18630407        1
C       26.21770000      11.20550000      18.04220000      -0.03057709      -0.24179874      -0.20078912        1
C       20.60150000       6.60081000      21.81840000      -0.00858164      -0.62016983      -0.08590999        1
C       14.73740000       6.77353000      19.62110000      -0.00537604      -0.04588545       0.31690192        0
C       15.61840000      16.80210000      19.81290000       0.19101544      -0.78322884      -0.33720497        1
C       22.22860000      18.18460000       3.20080000      -0.38604404       0.77351874      -0.76696464        1
C       22.49420000      17.89350000       5.95799000       0.41167352       0.15588862      -0.53556565        1
C       22.68500000      18.38690000       4.52554000      -0.61664822       0.85937383      -1.17977657        0
C       26.70240000       4.87405000       5.28462000       0.31153880      -0.67455055      -0.39796982        1
C       20.06950000       7.46572000      12.23220000       0.10344136      -0.53511811      -0.36542674        1
C       19.71050000      12.28960000       6.78965000      -0.01212057       0.07396318      -0.26480902        1
C       16.57330000      14.40650000       7.13600000       0.26241482       0.07301602       0.64401038        1
C       16.72250000      16.07700000       8.86287000       0.50592178       0.67407734       0.99752847        1
C       17.83580000      17.93490000       9.75238000      -0.21280294      -0.31796818      -0.01355073        1
C       22.89560000      13.68550000      14.15940000      -0.23776478       0.17148030       0.25694043        1
C       22.61810000      14.79710000      13.32270000       0.73980913      -0.20858068       0.13911574        1
C       17.75290000      15.18270000      13.34150000      -0.39910823      -0.91789977       0.33183207        1
C       19.08320000      13.42470000      12.04480000       0.82621691       0.31090296      -0.15426722        0
C       25.63520000       7.73226000      16.77810000      -0.82115705       0.62185849      -0.37088890        1
C       24.51910000       8.10819000      14.63450000      -0.97562357       0.25404366       0.22964797        1
C       24.82080000       8.58466000      15.96450000      -0.69284702       0.00800120      -0.45376041        1
C       24.73790000       9.87546000      16.52020000      -0.30714657      -1.48964016       0.84955001        1
C       27.71280000      10.77970000      20.25540000       1.19696030       0.08988733      -0.48161902        1
C       28.05580000      15.41230000      20.16330000      -0.53421203      -0.01733316       0.47281255        1
C       28.01590000       9.42048000      20.63750000       0.05196243      -0.16407636       0.00817472        1
C       28.55470000       9.26732000      21.93330000      -0.35125227      -1.21578012      -0.80246807        1
C       29.16390000      15.51750000       2.89788000      -0.09481954      -0.53461555      -0.01881847        1
C       29.29840000      16.50690000       1.91742000       0.18202433       0.26478701      -0.37622878        1
C       25.84190000      14.62670000       5.85302000       0.49566143       0.26297974      -0.64373404        0
C       31.13500000      18.12680000       7.26401000      -0.27530904       0.20276147      -0.64052546        1
H       25.59150000       8.77130000       6.75577000       0.02309606       0.03784966       0.19847124        0
C       30.23990000      18.86620000       1.96828000       0.85599529      -0.64499228      -1.04112793        1
C        0.40834000      17.65640000       5.19056000       0.88753813      -0.38084478      -1.07020932        1
C       30.30810000      17.15400000       3.90219000       1.12225575       0.26570776       0.18439653        1
C       30.06280000      17.54460000       2.51249000       0.51508652      -1.18461144       1.17910648        0
C       25.30470000      12.60200000       8.74199000      -0.13307521       0.23931894       0.80247296        1
C       24.91090000      11.22210000       8.92996000       0.29379626       0.51739757       0.89797701        1
C       24.31400000      10.64090000       7.82140000       0.70030598       0.17049596       0.78592752        1
C       24.86410000      10.64670000      10.37760000      -0.38417441       0.71336038       0.55270169        1
C       23.43480000       9.52790000       8.08397000       0.17872894      -1.17908936       0.01174332        1
C       24.57420000      12.92510000      11.03540000       0.24352286       0.15990912      -0.36909630        1
C       27.45110000       4.21792000       4.19496000       0.03592651       0.16586284       0.28571001        0
C       24.18640000      11.35820000       6.59978000      -0.17923028       0.23329797      -0.29085302        1
C       24.01450000      11.00010000      16.11660000      -0.00481186       0.12894832       0.94311840        1
C       24.38050000      12.32120000      16.58560000      -0.05914626      -0.48538029       0.49058444        1
C       23.77460000      13.62890000      16.48790000      -0.18716123      -0.19139328       0.02440364        0
C       24.62580000      14.50030000      17.29530000      -0.39968905      -0.85240031      -0.38363883        0
C       25.40860000      16.79210000      18.27800000       0.41051555      -0.64268978      -0.81252911        1
C       26.67930000      16.48900000      18.77970000       0.11982234      -0.30450659       0.29045073        1
C       28.18760000      16.77370000      20.51790000       0.41504473      -1.40367869      -0.97062363        1
C       27.13890000      15.24350000      19.07780000       0.63332940      -0.39694146       0.13886507        1
C       26.23150000      15.98700000       5.50068000       0.62635588      -0.17532472      -0.60573002        0
C       26.66910000      18.31950000       6.48853000      -0.11643231      -0.50381982       0.35905116        1
C       26.66490000      17.09990000       5.71989000      -0.14750035       0.50802985      -0.01845714        0
C       30.50660000      21.30740000       1.90437000      -0.45856716       0.12793341      -0.27245385        1
C       32.03300000      20.36010000       3.39126000       0.62747105      -0.71475191      -0.37366828        0
C       32.33640000      21.77240000       3.30385000      -0.65657201       0.75587891      -0.21216465        1
C        0.76122000      20.02290000       4.86831000      -0.41079434       1.11667987      -0.56297305        1
C       30.95350000      20.05550000       2.44386000      -1.20170469      -0.63733156      -0.01451942        1
Cl      18.99890000      14.20790000       2.41630000       0.47103084      -1.16842832       0.66913909        0
C       24.53440000      11.50330000      11.41570000       0.41046908      -0.34748977      -0.50798828        1
C       25.07380000      13.53570000       9.84610000       0.38499979      -0.42789615       0.37600868        1
C       25.06650000      14.88980000       9.60639000      -0.15636673       0.47268049      -0.55128938        1
C       24.69800000      16.00550000      10.31500000      -0.21124512       0.04605872      -1.25696948        0
C       30.95490000      21.24150000      11.13090000      -1.23297853      -0.92477914      -0.05494723        1
C       32.03290000      17.19870000      14.24830000      -0.72286872       0.19242286       0.06198764        1
C       23.96780000      13.54960000      12.08440000       0.27933810       0.34148837       0.10311549        0
C       23.61510000      12.71430000      13.24350000      -0.37597200       0.23908050       0.85841884        0
C       24.42660000      15.83770000      17.76880000       0.22761693       0.54361154       0.40145108        0
C       23.14850000      16.63510000      17.76420000      -0.28806998       0.29485885      -0.52262741        1
C       22.42170000      19.33330000      12.47430000       0.22241522       0.23639772       0.52886726        1
C       22.04930000      20.63960000      12.75090000       0.65667961       0.17911656       0.70404279        1
H       23.15510000       5.27548000      19.82440000       0.08359754      -0.11525401      -0.15067005        0
C       25.56350000      19.05520000      19.38080000      -0.14162489      -0.07069127      -0.72822450        1
C       25.27290000      20.40540000      19.85910000      -0.70891435      -0.12206468       0.80548345        1
C       27.39110000      17.45950000      19.66730000      -0.86135473       0.31383152      -0.38296997        1
C       26.53300000      21.03350000      20.36670000       0.05822196       0.00637244      -0.03425974        1
C       29.62960000      21.55950000       0.82330800       0.14994469       0.28215172      -0.87742574        1
C       29.60420000      22.90080000       0.31297000       0.96727443      -0.35993401      -0.66982206        1
C       30.55800000      23.77250000       0.90909500      -0.05564850      -0.25652591      -0.07057535        1
C       30.47700000       0.92759000       0.31431100       0.39310193       0.55993322       0.17210636        1
H       16.92650000       5.13071000       3.81686000       0.34741831       0.01624857      -0.21743737        0
C       32.99120000      24.20710000       3.62865000      -0.08730262       0.82347911      -0.72222554        1
C       31.95400000       0.53695300       2.70693000      -0.23466259      -0.35258754       0.63688769        1
C       31.31280000      22.28690000       2.50817000       0.35728180       0.26620055      -0.98305319        1
C       31.27280000      23.57520000       2.07573000       0.54869831       0.63944330       0.71967360        1
C       25.08790000      17.09000000       9.57482000       0.36122527      -0.50482372      -0.10306414        0
C       25.00940000      18.51070000       9.69372000      -0.22386177      -0.69092481       0.21934604        1
C       24.11770000      19.27810000      10.56700000       0.40015738       0.70000517       0.16664175        1
C       24.15180000      20.68820000      10.15700000      -0.23354252      -0.73431640      -0.69734685        1
C       31.34520000      22.69530000      13.55980000       1.14567566       0.95379572      -0.83231003        1
C       27.84660000       0.78849400      13.57710000       0.76113442      -0.07967638      -0.89396140        1
C       30.91510000      20.53250000      14.66440000      -0.76581767      -0.58823814       0.39466709        0
C        1.82457000      22.38390000      16.55720000      -0.10061087       0.05099826      -0.21252659        1
C       21.14980000      20.78310000      13.80610000      -0.01658995       0.73988738       0.14369505        1
C       20.43090000      21.96290000      13.91390000       0.92709997       0.22241522      -0.35785773        1
C       28.42390000      19.78480000      21.48040000       0.24431277      -0.41870573       0.05877588        0
C       24.37940000       3.70201000      22.08930000      -0.03020916       0.62773151       0.29918994        1
C       24.05860000      20.98970000      20.18150000      -0.78274095      -0.13423318       0.05359496        1
C       22.15890000      22.27870000       1.65926000      -0.02800473       0.25548165      -0.47164724        1
C       26.84450000      18.74710000      19.85280000       0.37945570       0.41303326      -0.13980661        1
C       27.44970000      19.95040000      20.48260000       0.51450448      -0.84297634      -0.85693805        0
C       31.01020000       4.16446000       2.63868000      -0.06628241      -0.19315530       0.08731754        1
C       30.90760000       5.21422000       3.54398000      -0.59980198       1.20086709      -0.42713925        1
C       30.63690000       2.44877000       5.78001000       0.61205057      -0.13087787      -0.68580869        1
C       30.85140000       3.06700000       7.08738000       0.72435563      -0.71656162       0.59113980        1
H       30.55920000      17.92450000      19.29350000      -0.20092487      -0.11875128       0.01473216        0
C       26.54010000       6.19319000       5.93576000      -0.38912178      -0.27825961       0.91091403        1
C       31.13870000       6.43723000       8.65337000      -0.41913982      -0.15389549       0.98543027        1
C       26.48510000       2.07618000      21.97270000      -0.42036749      -0.70470676      -0.25549877        0
C       31.04580000       4.63991000       4.86334000       0.25181453      -0.67849280       0.17341840        1
H       32.61210000      17.61300000      20.06580000      -0.24722474       0.28623964       0.02800507        0
C       24.92730000      21.22040000       9.08216000       0.97418681      -0.23297026       0.80994659        1
C       24.74980000      22.56590000       8.64799000      -0.03627354      -0.23469071       0.13585581        1
C       23.87930000      23.56660000       9.24983000       0.21653120      -0.06320369      -0.62356916        1
C       23.80000000       0.83913100       8.62170000       0.82255835      -0.91852095      -1.03163915        1
C       27.43730000       2.09475000      13.93810000      -0.25836375      -0.24407189      -0.15533593        1
C       27.61190000       2.55247000      15.23230000       0.12722665       0.06387647      -0.13977604        1
C       21.96670000      23.60380000      10.89270000       0.09325536      -0.27671646       0.13959018        0
C       27.29200000       5.97259000       9.15742000       0.04235296      -0.24957562      -0.03768451        0
C       25.03130000       4.79592000       0.26569800      -0.30676018       1.28012894      -0.02892451        0
C       25.09110000       2.45967000      21.72800000       0.83222810       0.28992371      -0.10841784        1
C       29.36030000      23.76640000      16.85830000       0.21489879      -0.45313557      -0.33906115        1
C       29.79810000       0.32039900      18.12720000       0.12959150      -0.53288287      -0.49100263        1
C       29.47500000       0.82463600      21.59760000      -0.44694952      -0.88013175      -0.44006893        1
C       30.85080000       1.97693000       1.07998000      -0.10284746       0.08088681      -0.47132320        1
C       27.49110000      23.60350000      21.19950000      -0.32720384      -1.31969812       0.07602124        0
C       28.80850000      23.68760000      21.65290000       0.19790458       0.35887141       0.83775996        0
Cl       8.56949000      23.02020000      15.38100000      -0.55710524       0.04799090       1.38679021        0
C       29.46870000      11.94210000       8.91162000      -0.90129808       0.44019243      -0.04286677        0
C       31.61780000       8.91443000       5.46457000      -0.86774988       0.85128880      -0.11521992        1
C       31.21290000       7.56824000       5.22961000       0.26152830      -0.35291036      -0.41249279        1
C       30.77550000       7.56554000       3.84359000       0.19836680       0.35823924      -0.98942265        1
C       28.44430000      11.69980000       5.27397000      -0.76555477       0.50776695       0.44859171        1
C       28.10060000      12.11450000       2.65722000       0.28157579       0.21052001      -0.45636615        1
C       31.69030000       7.17516000       7.53207000       1.17616936      -0.62558186      -0.23276973        1
C       31.30630000       6.65637000       6.28005000      -0.25888098      -0.55209030      -0.46460647        1
C       24.60300000       2.09262000       6.74894000       0.96408542      -0.57277486       0.51966094        1
C       22.85120000       4.62590000       8.96983000      -0.52041906       0.32308185      -0.63444213        1
C       21.11250000       2.73219000      10.78210000       0.02827142       0.27777905      -0.58737608        0
C       24.08070000       3.20371000       7.37341000       0.59981910      -0.81587830      -0.86364989        1
C       21.52280000       6.26153000      10.21300000      -0.41841471      -1.13885133      -0.49578371        1
C       23.50720000       5.73265000       8.20116000       0.94630007      -0.75269846       0.11719116        1
C       27.11450000       3.90778000      15.62230000      -0.40793548       1.06113995      -0.60049652        1
C       20.32480000       6.33705000      11.15850000      -0.11267751       0.61580695       0.21704355        1
C       28.97720000       1.42355000      18.42500000      -0.18042860       0.17148886       0.44883871        1
C       28.89160000       2.30095000      19.55200000       0.34392659      -0.00544368      -0.17084812        1
C       28.46340000       3.53670000      19.12170000       0.50329035      -0.19366031       0.87912296        1
C       28.47520000       4.65714000      19.93890000       0.21214386       0.10299211       0.21629031        1
C       30.59520000       4.35211000       1.34914000       0.93239339       0.46345339       1.21103451        1
C       30.13730000       5.60019000       0.89884400      -0.15449832      -0.60474446       0.15054140        1
C       30.39300000       3.21323000       0.55119100      -0.51872429      -0.28593500       0.12398261        1
C       29.68040000       3.24059000      21.63390000      -0.16649991       1.13466086       0.71946939        1
C       30.59000000       6.49114000       3.10688000       0.35672543      -0.27478080      -0.01224615        1
C       30.32950000       6.72048000       1.72312000       0.68131742       0.07333920       0.41893684        1
C       28.15630000      11.58370000       0.25713700       0.33602131      -0.52837570      -0.00267285        1
C       22.07310000      14.95390000       5.10473000      -0.50634731       0.26223507      -0.63898231        0
H       31.38520000      12.42590000       2.75996000       0.27001550       0.22714415      -0.18120551        0
C       28.65000000      13.01910000       4.82416000      -0.73907913       0.13566139       0.29123453        1
C       29.10260000      13.97770000       5.82333000       0.25164701      -0.28936123       0.51428071        1
C       28.15160000      12.55320000       1.29481000       0.55401496      -0.59929697       0.47474210        1
C       28.43690000      13.20030000       3.46081000       0.04349602      -0.17629683      -0.52531752        1
C       21.04660000       4.07943000      10.91580000       0.31653142      -0.10300618      -0.03889469        0
C       22.10440000       1.85557000      10.14100000       0.38589609      -0.77588604       0.64859214        0
C       21.51460000       0.75540900      10.75400000      -0.88724956       0.59490719      -0.34385200        0
C       20.60910000       1.55741000      11.50980000      -0.01330031       0.75921710       0.37306912        0
H       28.83220000      18.10330000      17.34800000      -0.17509349      -0.14846578      -0.33502700        0
C       23.91020000       8.18717000       7.88992000      -0.05479390       0.34639783       0.30156336        1
C       25.43230000       6.53717000       6.73992000       0.69338504       0.54776533       0.53294401        1
C       24.53730000       5.56307000       7.25119000      -0.98434078       0.28008400       0.24696865        1
C       23.20580000       7.05923000       8.57465000       0.04941721       0.11949231      -0.40788046        1
C       29.24420000       4.53675000      21.19120000      -0.40202456       0.12454509      -0.57983030        1
C       23.94290000      10.20890000      13.28660000      -0.95923587      -0.64831702      -0.08554059        0
C       24.00460000       9.08385000      13.74620000      -0.46495741      -0.21478507      -1.15731653        0
C       26.09260000       6.46740000      16.41340000      -0.01556697      -0.01149767      -0.98612359        1
C       29.91950000       7.96580000       1.28263000       0.38409004       0.61508551      -0.99067111        1
C       29.15080000       8.05809000       0.10685500      -0.99785250      -0.12796398      -0.75998867        1
C       29.49970000       5.68023000      21.92940000      -0.45508835      -1.36380382      -0.64474038        1
C       29.08930000       6.96641000      21.55640000       0.13987020       0.21488656       0.38262026        1
C       28.27320000      14.39380000      21.09030000       0.60359626       1.06660334       0.46372240        1
C       28.73870000      14.77240000       0.17476800       0.80948683       0.87902758       0.64954102        1
C       28.41590000      13.91100000       1.23684000       0.28553637       0.10454627       0.01261689        1
C       28.61330000      14.30410000       2.60268000       1.33188924       0.09828857       0.50354102        1
H       16.23020000      11.36750000      20.47260000      -0.14044812      -0.11637564       0.10481966        0
C       29.62570000      15.33560000       5.44785000       0.18478170       0.44711093      -0.01146688        1
C       29.53970000      15.98130000       4.19806000      -0.60783320       0.35611160       0.30368855        1
C       29.31710000      13.45250000       7.14501000      -0.15844546      -0.43694228       1.36101588        1
C        0.39904400      11.19820000       7.41754000      -1.11323285      -0.27576636      -0.16478924        0
H       19.22100000      11.73950000      16.61050000       0.02057264       0.31819946      -0.09937785        0
C       25.48740000      13.11730000       7.48812000       0.35515661      -0.27513785       0.33393647        1
C       25.24050000      13.45730000       5.25360000      -0.66353452      -0.17086157      -0.12784904        0
C       25.79930000      14.46220000       7.27234000       0.28460951       0.44317724       0.89470118        1
C       22.12600000      16.69740000       6.83166000       0.42124178      -0.45690173       0.31819684        1
Cl       6.95871000      13.10030000       5.55318000       2.05006830       0.49032450       1.34891748        0
Cl      21.50350000       7.81902000      15.32600000       1.02205493       2.57644300       0.78941587        0
H       17.89320000       0.90484900       2.85488000      -0.27560416      -0.15428636       0.02635053        0
C       27.93730000       2.99450000       4.56064000      -0.47833585      -1.42707048      -0.05481860        0
C       27.57200000       7.23666000       6.04123000       1.09973091      -0.73764236      -1.22345307        1
C       25.07300000       7.85267000       7.07207000      -0.30809545       0.13751268       0.07051286        1
C       27.94050000       1.67691000       4.89483000       0.03264372      -0.26132532      -0.56205474        1
C       28.80840000      18.49690000      22.11600000       0.89536637       0.37333324      -0.68723690        0
C       29.40740000      19.19480000       0.88543500      -0.74116519       0.53490901      -0.21339232        1
C        4.17333000      22.50240000      20.86680000       0.00283393       0.04501520      -0.11586322        0
C        2.44785000      20.87540000      20.27040000       0.62065161      -0.45081228      -0.09654794        0
C        3.70000000      22.97880000       4.02111000      -0.95866116      -0.27892847       0.04650565        1
C        2.50482000      23.17440000       3.41175000       0.21394380       0.32729800       0.13315102        1
C        1.39817000       4.94770000       2.82942000      -0.46995002       0.46289458       0.13377341        0
C        1.09841000       1.98210000       4.49845000      -0.16022093      -0.08936826       0.35624977        0
C       32.52010000      18.21050000       4.59888000      -0.35112877      -1.11189146      -0.41812858        0
C       30.92180000      17.23340000       6.17741000      -0.70796058       1.18891196      -0.05716841        1
C       29.86290000      14.21190000       8.22274000      -0.48679015       0.15576879       0.48260458        1
C       -0.05235080      10.41740000       6.37182000       0.92631006      -0.03940080       0.34950492        1
C       29.42130000      22.38350000       5.90201000      -0.73738068      -0.76942120      -0.86257751        1
C       28.92700000       0.65988100       5.26674000      -0.25872447       0.58714008      -0.61430782        1
C       30.51750000      20.69940000       7.01110000      -0.51522469       0.72384939      -0.47538283        1
C       29.50080000      20.89340000       6.01760000      -0.13406566      -0.25018457       0.81011901        0
C       28.45540000       9.80778000       6.56603000      -1.28396847       0.03413942      -0.04905245        1
C       28.50800000      19.86390000       5.73456000      -0.23619596       0.39573947      -0.96211552        0
C       27.21970000      19.68480000       6.33966000      -0.30404193      -0.13881249       0.14106363        1
C       21.92240000      15.23510000       6.50046000       0.52889660      -0.10132559       0.44916275        1
C       30.90490000      17.92430000      12.19820000       0.83662889      -0.25867066       0.52491767        1
C       30.73410000      19.21390000      14.15780000       0.55601421       0.01535335       0.35982151        1
C        2.19960000      16.53070000      18.16980000      -0.24743086       0.29937825      -0.24606746        0
C        2.90330000      17.56390000      18.87690000       0.03547127       0.44707913      -0.07135377        1
C        1.09277000      18.97160000      19.98040000      -0.29901753      -0.11097381      -0.68735429        0
C       33.12450000      20.94230000      20.06960000      -0.20371279      -0.72135859       0.20853055        1
C        4.47770000      19.90090000      19.06560000      -0.90190825      -0.67284477      -0.27974039        1
C       30.27610000      18.86820000      18.86070000      -0.61461107      -0.44160597       0.46137344        1
C        0.10632900      22.76330000       3.56362000       0.07959849      -0.00058709      -0.88758215        1
C        0.40466400       0.86593100       4.69182000      -0.01129500      -0.48909020       0.89721155        0
C        1.44171000      22.37210000       3.82793000      -0.68969713       0.75435899       0.38618589        1
C        1.64927000      21.16050000       4.70383000       0.18121852      -0.32212808      -0.26635951        1
C       29.33260000      22.40660000      16.71630000      -0.24049770       0.08980797       0.43284964        1
C       29.82290000      21.37760000      17.64290000      -0.07136331      -0.04878528       0.29672604        1
C       30.67470000      21.38850000      18.72840000       0.47563473      -0.12583145      -0.49710675        1
C       30.99430000      20.04010000      19.23190000       0.31581120      -1.01862265      -0.12836995        1
C       31.05710000       1.69273000      10.39410000      -0.50155890      -0.40218597      -0.21793373        0
C       30.61230000       0.29914800       6.98117000      -0.38820836      -0.31267843       0.96600885        1
C       30.17780000       1.08771000       5.84226000       0.76971467      -0.08736853       0.50755052        1
C       25.53140000      22.86020000       7.57725000      -0.04406877       0.31249135       0.15365093        1
C       25.64020000      15.36130000       8.30317000       0.13668363      -0.49932243       0.01606978        1
C       25.70470000      16.76470000       8.33868000      -0.73291753      -1.11011231       0.06696289        0
C       26.06090000      17.97110000       7.71357000       0.69709740      -0.51633375       0.65085184        1
C       25.66980000      19.04260000       8.55203000       1.04415309      -0.06622054       0.35568974        1
C       32.46830000      19.20820000      15.71080000       2.06712272      -0.05354079       0.15940289        1
C       31.67160000      18.38880000      14.82490000      -0.80411026       0.63911682       0.14510614        1
C       31.99350000      20.58030000      15.59830000       0.75966586      -0.05587337      -0.10410900        1
C       30.69370000      19.24020000      12.76810000       0.62680709      -0.99764096      -0.44720875        1
C       29.21020000      20.14570000      17.21220000      -1.29933883       0.02573513      -0.11657562        1
C       28.59200000      21.80610000      15.67860000       0.40437352       0.00978030       0.59970049        1
C       28.44630000      20.41520000      16.02870000      -0.80933887       0.20866138      -0.21301081        0
C       28.14200000      22.45280000      14.53430000      -0.44560935      -1.17319189      -0.08819806        1
C        4.81453000      23.43030000      21.75920000       0.50794181       0.10702949       0.37232445        0
C       32.70510000      22.31810000      19.84140000      -0.10030457       1.47990683      -0.53645705        1
C        2.88417000      23.61640000       0.95612500      -0.05982331       0.60049652       0.70967981        1
C        4.30259000      23.42640000       0.86166700       0.23114220      -0.10928638      -0.54548240        0
C       32.96030000      18.61940000      19.97630000       0.61308993      -0.08619771      -0.39786344        0
C        1.11028000      20.42390000      20.18020000      -0.20200701       0.30015349      -0.31069875        0
C       28.69750000       8.89473000       7.62978000       0.65609879       0.74790638      -0.88294415        1
C       32.29350000       9.33407000       6.59884000      -0.50856543      -0.71736254      -0.63481630        1
Cl       1.02368000       5.31851000      17.77730000      -0.88866308      -1.25208469       0.51350865        0
C       27.17300000       2.69557000       0.72438900      -0.09298598       0.67905405      -0.27151475        0
C       31.43340000       1.86773000       2.39941000      -0.01643943       0.61485807       0.23212287        1
C       30.35350000      23.01480000       6.79168000      -0.83301190      -0.15663574      -0.31220155        1
C       30.91700000      21.98190000       7.59099000      -0.70985223      -0.15704048      -0.56931194        1
C       25.80510000      20.40100000       8.28733000      -0.13977604      -0.80623056       0.18774695        1
C       26.60550000      20.77260000       7.10478000      -0.10857778      -0.25488738       0.66141300        1
C       26.54340000      22.12510000       6.83468000       0.79224929       0.09941401       0.18296954        1
C       27.16130000      23.08240000       5.84123000      -1.00215424       0.37474188       0.42041151        1
C        0.89564500      21.33470000      16.23180000       0.05287413      -0.00109113      -0.25953884        1
C        1.42877000      20.02360000      15.92340000      -0.54038463       0.27011100       0.58177575        1
C       31.24640000      15.44970000      12.62260000       0.84248723       0.34019222       0.65188876        1
C       30.85100000      15.09670000      11.20680000      -0.09863938      -0.44345481       0.14693787        1
C       28.29270000      23.88310000      14.56780000       0.32785803      -0.97718751       0.15974649        1
C       28.69250000       0.34837800      15.82490000      -0.01616516      -0.71098452       1.17880935        1
C       28.30170000       1.70949000      16.07740000       0.52549483       0.40547403       0.82879942        1
C       28.39530000       2.17509000      17.38180000      -0.49817180      -0.87654167      -0.50936880        1
C        0.41699600       1.55505000      21.12600000       0.11737128      -0.41846851       0.12550375        1
C        1.22681000       1.03169000      22.20400000      -0.69540140       0.59649436      -0.18829475        1
C        0.34457000      23.34250000      20.36010000       0.37004518      -0.19781654       0.09486747        1
C       33.10230000       0.52627100      20.28670000       0.65040797       0.12377351      -0.51679963        1
C       32.32170000       8.49432000       7.75072000      -0.64081893       0.05936392      -0.05800345        1
C       33.22510000       8.59888000       8.78062000      -0.81300721       0.57698734       0.63501439        0
C       30.41110000      15.42690000       7.83035000       1.13085067      -0.47487171      -0.95208016        1
C        0.06730920      10.85330000       4.99263000       0.75784636       0.01829524      -0.13665551        1
C        4.99855000       7.22812000       3.66487000       0.68456268       0.29629317      -0.15488227        1
C        5.08061000       7.92658000       1.53826000      -0.04175991       0.39161014      -0.12484834        0
C       31.15340000       2.94152000       3.29399000      -0.63347368      -0.10410900      -1.16776275        1
C       30.96560000       3.25820000       4.69649000      -0.09380243      -0.34059084      -0.20293266        1
C       26.31570000       0.13262700       5.84946000      -0.48820858       0.83977510      -0.70593199        1
C       25.38910000      24.05960000       6.93600000      -0.06902486       0.37709329      -1.02200853        1
C       24.51990000       0.88269300       7.38296000      -0.61264240      -0.20095542       0.31583688        1
C       24.77870000       4.28010000       6.77232000       0.17334259       1.10130463      -0.97774510        1
C        3.22372000      22.37790000      16.15730000       0.00278650       0.32404540       0.60999263        1
C        3.86747000      23.59440000      16.04160000      -1.15220653      -0.59038045       1.00810185        1
C        2.80649000      20.03300000      15.49030000      -1.72315456       0.07938034       0.33387656        1
C        3.67402000      21.17330000      15.50540000      -0.50579094       1.80609576      -0.37112857        1
C       27.90810000       3.42742000      17.82420000      -0.65307975       0.29707698      -0.17095450        1
C       27.30220000       4.34862000      16.96100000      -0.69237258       0.78269571      -0.36641108        1
C       31.71830000       8.60080000      16.71920000       0.77173715       0.27238048       0.44281285        1
C       27.21010000       6.44916000      18.47440000       0.07715684      -0.28603038      -0.11610619        1
C       26.67600000       2.91819000      13.08220000       0.39554260      -0.05143272       0.04091742        1
C       26.13320000       4.15677000      13.50500000       0.70276254       0.01720159       0.18436229        1
C        1.97301000      23.91880000      22.17630000      -0.33529498      -0.47188691       0.13646842        1
C        1.68609000      22.99780000      21.09250000       0.30952855      -0.65698775       0.28526492        1
C        3.54886000      12.62940000       0.73429100      -0.04132766       0.75883804      -0.06693525        1
C       32.20580000      10.88740000       4.08925000      -0.96449994       0.58571432      -0.96247624        1
C        0.47483400      11.79990000       8.49650000      -0.64212608      -0.89784495       0.43718439        0
C       31.39850000       9.72883000       4.25892000       0.00219719       0.70277477       0.32727354        1
H       32.48220000      14.72760000       3.46182000       0.12140913       0.03231519       0.28802727        0
C        4.31020000       8.60857000       5.51599000       0.27591921       0.58090513       0.44404786        1
C        4.94198000       7.44550000       5.03363000       0.20573038      -0.49117871      -0.01573327        1
C        4.28281000       8.08181000       2.81234000       0.38797481       0.14717020       0.87706380        1
C        3.44073000       9.43567000       4.66148000      -0.17697058      -0.27269229       0.71620946        1
C       26.28310000       3.83903000      12.10120000      -0.09785424       0.52769094       0.19520346        0
C       26.33320000       4.27246000      10.80760000       0.17330469       0.60278801       0.03275340        0
C       26.70230000       5.12057000      10.02010000      -0.15082020      -0.89545808       0.27080187        0
C       28.11280000       7.57838000       7.31455000      -0.51385151      -0.33911984       0.29742547        1
C        1.25341000      23.60900000      16.89840000      -0.36634016       0.73516256       0.09606372        1
C       31.09580000      23.32020000      12.35860000      -0.18721259       0.39956555       0.42193021        1
C        1.99589000       0.67072700      16.99060000       0.62273523       0.01696779       0.04761177        1
C        3.32010000       0.69368400      16.50620000      -0.23833338       0.61398501      -0.75872187        1
Cl       7.69269000      21.04690000       4.89716000      -0.12610963      -0.89195809      -1.44103693        0
C       28.02270000       5.93013000      19.58500000      -1.24892358       0.23847033      -0.06519829        1
C       28.35020000       7.06141000      20.35220000      -1.07525084      -0.64408375      -0.31835703        1
C       27.82130000       8.25356000      19.87280000       0.51847729      -0.46676345       0.54177493        1
C        3.32760000      12.71740000      19.42910000      -0.30754153      -0.23768897       0.47462716        1
C        2.31315000      11.86120000       4.78298000       0.30301969       0.18251711      -0.37799815        0
C        0.98511400      14.97850000       4.86058000       0.06271275      -0.16996894       0.61805931        0
C       23.96590000      11.42370000      12.79880000      -0.08721213      -0.03534900       0.16971338        0
C       22.17250000       7.29048000       9.54489000      -0.03560969      -0.27164803      -0.19124165        1
H       20.36290000       8.52258000       5.04844000      -0.24672498       0.11679022       0.05074072        0
C        0.07650830      12.83150000       3.74643000      -0.01014551      -0.36846168      -0.56682848        0
C       32.16940000      12.04180000       3.31393000       0.05808794      -0.44118289      -0.32033059        0
C       29.93680000       9.01473000       2.20227000      -0.40924019      -0.73900576      -0.14170070        1
C       26.79680000       6.74487000       2.89195000       0.23543172       0.50712866       0.27572234        0
Cl      27.42360000      21.64980000      13.18350000      -0.01184016      -0.14980878      -0.21538592        0
C       30.44680000      13.73190000      10.75440000      -0.46545141      -0.55272126      -0.46135143        1
C        0.00843088      15.30750000      15.15580000      -0.16734852      -0.56411268      -0.95325770        0
C        5.85200000       6.24437000       2.92047000       0.16324854       0.15483092       0.46012376        1
C       30.58160000      12.78900000      11.76290000      -0.41734233      -0.21975812       0.57709250        1
C       27.83520000       6.67375000       8.29914000      -0.66579911       0.28094483      -0.28479415        0
C       27.31860000       3.36681000       1.75543000      -0.33344858      -0.63229737      -0.88168591        0
C       30.66180000       7.11568000       9.80506000      -0.40388686       0.03538115      -0.31366889        1
C       29.94360000       8.35801000       9.87295000      -1.44882375       0.24312668      -0.61751518        1
C       32.38730000      10.35380000      15.16870000      -1.08849967      -0.46265491       0.40062815        1
C       33.12710000      12.99220000      14.90820000      -0.87839785       0.35709471       0.87353852        1
C       31.12710000       0.62087000      12.66330000      -0.30255870      -0.40879265       0.51184126        0
C       30.89840000      21.40760000      13.56490000      -0.27560862      -0.50222164       0.17641911        1
C       27.95240000      11.79980000      21.21010000       0.45400496       0.29611954      -0.20732978        1
C       27.91080000      13.10550000      20.59760000      -0.41245366       0.57753637       0.14176673        1
C       28.97630000      16.13230000       0.49970500       0.64251981      -0.34687838       0.27534939        1
C       28.74970000      17.13100000      21.77220000       0.43901000      -0.31248768      -0.27439929        1
C        1.34496000       3.23753000       1.08569000      -0.82043927       0.88957529       0.59881886        1
C       32.21880000      19.85220000      19.89220000       1.00629947      -0.07895946       0.45042344        1
C        3.25741000      19.79680000      19.78120000      -0.87978448      -1.20815364      -0.13002681        1
C        2.47261000      18.63450000      19.65780000      -0.50500225       0.08869549       0.61643057        1
C       30.70230000       8.90508000       3.32731000       0.03596711       0.74299691      -1.26367032        1
C       29.98500000      13.33420000       9.38740000       0.19618902       0.19132358       0.62160782        0
C        2.39555000      18.86260000       6.31349000      -0.76227772       0.40350290      -0.82113259        1
C       30.26020000      15.98300000       6.52574000      -0.17334871       0.04379254      -0.07903821        1
C        5.22879000      15.99410000      14.78430000      -0.32528408      -0.17967904       0.69188713        1
C       31.11570000      19.57570000       7.57471000      -0.28638009      -0.21604087      -0.70783953        1
C        1.12987000      14.66810000      15.77690000      -0.37423932       0.46406111       0.39115160        0
C        0.98873400      14.35690000      11.35880000      -0.25087299      -0.57499421      -0.23605534        0
C       29.44590000       9.28907000       8.79406000       0.13178517       0.47718644      -0.66573675        0
C       29.51430000      10.67350000       9.47660000      -0.13182186      -0.12759837       0.06646130        0
C       29.00810000      12.13610000       7.53925000      -0.34965654       0.23270981       0.34246170        1
C       28.63010000      11.17550000       6.59983000       0.09495258       0.14039599      -0.20451249        1
C        2.41886000      15.13130000      16.22870000       0.53094598       0.77825457       0.56759149        0
C        2.91867000      16.03290000      17.10730000       0.72571413      -0.34136609      -0.18316030        0
C        1.61682000       8.82715000      15.18780000       0.25018701       0.52328037      -0.54352839        0
C        2.53949000      13.32070000      14.71140000       0.26609905       0.70151164      -0.13751634        0
H       28.87760000      18.92570000       5.42136000      -0.26094599      -0.13254950      -0.11331347        0
C        6.86318000      17.61680000      13.86590000      -0.15898593      -0.77823134       0.62159559        1
C        3.34974000      16.50360000      10.78760000       0.65372293      -0.20577685       0.33809393        1
C        3.30520000      12.96180000      13.56110000       0.64434909      -0.07814790      -0.47341660        0
C        4.72907000      10.13000000      15.26070000       0.44005426       0.22144800      -0.03567377        1
C        9.89787000      16.11800000      14.68260000       0.50691345       0.21481808      -0.23440336        1
C        2.75978000      10.53540000       1.48312000       0.10393818      -0.03702457       0.21013728        1
C        8.98539000       1.48423000      20.15060000      -0.91610595      -0.18773839       0.15995192        0
C        7.61127000      22.01150000      16.34860000      -0.18373500       0.55159630       0.50314851        0
C        1.25885000       7.12023000       1.25541000      -0.73568713       0.03866970       0.30217475        1
C        1.33094000       9.32607000       0.17561200      -0.24478966      -0.52352493       0.01224101        1
C        4.27390000      18.59900000      11.42620000       0.81837033       0.08345502       0.03054787        1
C        3.82620000      15.50190000       9.80515000       1.17403561      -0.72209960       0.65199270        1
Cl      25.18270000       9.01694000      10.52410000      -1.21591179       0.77242475      -1.35379683        0
C        2.83053000      17.27530000      13.05360000       0.56788618      -1.04154490      -0.21397314        1
C        4.04965000      19.18530000      13.68740000       1.52704502       0.00779594      -0.13025303        1
C        1.70020000      15.21720000      11.94970000      -0.44528531       0.68586005       0.74805433        0
C        2.60514000      16.30050000      12.04690000       0.58934720      -0.61023107      -0.18922284        1
C       31.09130000      20.83280000       9.75274000       0.21906236      -0.01073495       0.15679593        1
C       31.14390000      22.01250000       8.94345000      -0.87146346      -1.08999513      -1.41118656        1
C       31.07620000      23.15690000       9.85102000      -0.15835375       0.32483043      -0.19679552        0
C       31.01440000      22.72320000      11.13040000      -0.64241955       0.22621318      -0.29542745        1
C        1.00234000      17.73470000      15.07480000      -0.19580385      -0.78872402       1.21714963        1
C        2.29211000      17.82130000      14.37630000      -0.00406559       0.19396968       0.25409624        1
C       31.61650000      14.33240000      13.49100000       0.20392678      -0.33434855       0.04651689        1
C       33.22280000      16.66000000      14.88100000      -0.69199596       0.09200519      -0.37021759        1
C        3.21385000      14.45210000      15.27260000       0.20456018      -0.39590332       0.24747855        0
C        4.39739000      14.79820000      14.59790000      -0.09028241      -1.30174770      -0.79013021        1
C        5.08833000      16.96210000      15.88150000       1.30813062       0.52274602      -0.33347182        1
C        4.15962000      16.82250000      16.98310000      -0.90450054       0.67676623      -0.82276500        1
Cl       0.66699600      15.90700000      18.71020000      -0.13928244      -0.21068341      -0.10554092        0
C       28.46640000      23.34810000       5.46004000       0.23283698      -1.04491366      -0.31793884        1
C       29.35920000       2.04062000      20.86320000      -1.14656340       1.39936227      -0.17273854        1
C        9.13799000      15.03360000      14.46830000      -0.07096101      -0.22762182       0.30952366        1
C       31.19190000      17.64580000       4.84002000      -0.04402805       0.34290312      -0.46993290        1
C        4.36923000      14.20580000      10.01090000      -0.53175179      -0.13245159      -0.08949922        1
C        3.47421000      14.93290000       7.46667000      -0.37816200      -0.81435716       0.12021693        1
C        3.69019000      15.90550000       8.42737000       1.07950734       0.41469501      -0.06345448        1
C        7.01754000      15.66940000      10.10080000       0.32981326      -0.00932860      -0.20975088        0
C        1.25763000      18.85490000       5.56193000       0.21721473       0.15711140       0.30351492        1
C       32.79300000      19.57110000       4.30913000      -0.07405208       0.65961429       0.31810880        0
C        7.72221000      17.93590000      12.79850000       0.48556004      -0.06709678      -1.47331604        1
C        8.98361000      17.63840000      10.92000000      -0.34187721       0.87140232       0.45473619        0
C       31.02450000       1.73702000      11.77260000      -0.22010172      -0.02627645      -0.31437198        0
C       31.05770000       0.46106000       9.55279000      -0.11997311       0.44032327      -0.79547254        0
C       31.07590000       0.90194400       8.19577000       0.94447569       0.27925006      -0.19368966        1
C       31.03420000       2.30358000       8.20208000      -1.10432245      -0.75407531      -0.14415237        1
C       31.06110000       4.42295000       7.24195000      -0.13729502       0.57533903      -0.11337646        1
C       31.09720000       5.00328000       8.54504000      -0.26613207       0.80116825       0.56560203        1
C        6.41145000      21.11290000      18.08470000      -1.41442693      -0.53099978       0.30928277        1
C       31.08050000       5.27344000       6.11289000      -0.71165460      -0.00217209      -0.47660684        1
C        4.09347000      17.67440000      18.12180000       0.00610333      -1.00572232      -0.06214427        1
C        4.88676000      18.84470000      18.17370000      -0.11635772       0.61345188      -0.30212706        1
C       29.39700000      18.91350000      17.78270000      -1.45859376      -0.70442308      -0.42499449        1
C        6.97389000      22.36270000      17.64870000       0.33080126      -0.04946098       0.64446404        1
C       25.05660000       6.84552000      14.20510000       0.13840531      -0.03014692      -0.53958004        1
C        6.48325000       5.65322000       5.13593000      -0.13937008      -0.03019950       1.05244965        1
C        0.25621900       5.25612000      21.99390000      -0.15169082       0.19834723       0.13136576        1
C       31.72200000       7.80820000      17.91120000      -0.39170674      -0.07553164      -0.19376914        1
C        3.91185000      18.27110000       9.02112000      -0.32862594      -0.21713281       1.29597618        1
C        4.28339000      19.62320000       8.77798000       0.30160493       0.38577136      -0.51856411        1
C        3.81514000      22.19730000       5.21690000      -0.27306524       1.00537383      -0.94087093        1
C        3.18479000      20.04450000       6.46224000      -0.05614006       0.05907045      -0.74774742        1
C        4.73912000      21.31150000      14.57010000      -0.77110986      -0.32100435       0.59753494        1
C        5.38716000      22.58170000      14.30980000       0.92208413       0.67712328      -0.49828307        1
C        5.44426000      20.57910000      12.26220000      -0.09839837      -0.33153982       0.45696776        1
C        4.85173000      20.30370000      13.56760000       0.87542038      -0.29169919       0.04509639        1
C       31.26730000       4.28750000      12.29040000       0.42646183       0.68270405       0.66432933        1
C       31.31660000       5.12164000      13.38760000       0.86541314       0.13987264       0.15746968        1
C       31.12970000       4.90733000      11.01740000      -0.03599328       0.40294776       0.47483992        1
C       30.92450000       6.33310000      10.99270000       0.44905026       0.29408972      -0.01816746        1
C       31.20380000       2.90156000      12.66290000       1.70791871       0.49117015      -0.65684224        1
C       31.86980000       2.06999000      17.26280000       1.14198776       0.25580569       0.11993802        1
C       31.14570000       4.26047000       9.72125000       0.71295442      -0.33967743       0.09624713        1
C       31.16740000       2.81453000       9.51802000      -0.31978157       1.12322297      -0.61101732        1
C       31.63370000      23.65770000      14.62780000       0.06976012       0.56851836      -0.69373598        0
C       33.13900000      24.00850000      16.62910000       0.50238183       0.42430851       0.38707240        1
C       31.32130000       3.10597000      16.49660000       0.58722079      -0.13232197       0.23908172        1
C       32.49440000       3.72271000      20.51770000       0.23595018      -0.07574966      -0.68446852        1
C        5.76080000       6.75038000       7.19164000      -0.56943055      -0.05578618       0.18193874        1
C        5.32794000       8.04899000       7.72005000      -0.74840527       0.14573832      -0.02132431        1
C        6.98993000       4.55528000       5.84104000       0.20612901      -0.96286264      -0.95396202        1
C        5.74362000       6.63050000       5.79897000       0.02661724      -0.43266255      -0.30877532        1
C        2.92183000      21.05040000       5.39579000       1.09209098       0.64422193       0.40466455        1
C       31.20980000       4.31615000      18.67260000       0.08087752       0.84595014       0.04738556        1
C       31.21350000       5.69170000      19.06710000      -0.04524716       0.62767159       0.10408626        1
C        0.16996100       9.95068000      17.63420000       0.17786199      -0.26399832       0.40582252        1
C        4.39235000       2.93256000      13.60590000      -0.56078672       1.12811654       0.39620046        1
C        3.39736000       1.91992000      15.75660000      -0.10055621       0.21609834       0.29904565        1
C        5.09162000       0.87047900      14.38450000      -0.01453030      -0.31395502       0.01207216        1
C        4.28225000       2.04957000      14.71670000       0.30640435       0.68193615       0.27499967        1
C       30.93580000       7.16446000      12.18220000      -1.31561403       0.46453188       0.58248374        1
C       30.73500000       8.56651000      12.20870000       0.16624924      -0.52974032       0.08803971        1
C       30.22500000       9.13749000      11.06340000      -0.41321789      -0.10141277       0.03881546        1
C       30.00290000      10.47880000      10.79090000      -0.25837230      -0.02250136       0.57159977        1
C       31.46790000       2.38653000      14.01290000      -1.11594376      -0.82350112       0.00074009        1
C       31.33050000       3.31007000      15.05620000      -0.31910048      -0.27794658       0.84237351        1
C       33.12870000       1.36085000      16.72250000      -0.32934493       0.51412174       0.12624475        0
C       31.44930000       0.92783800      14.04820000       0.00531940      -0.74835758      -0.14853604        0
C        0.13291600       2.95812000      21.28060000      -0.30627106       0.07372242      -0.61153456        1
C       30.88550000       4.25972000      17.31800000       0.79267115       0.12276472       0.10774934        1
C       30.83810000       5.64265000      16.86540000       0.39582629      -1.15574404      -0.29411296        1
C       31.01000000       6.53737000      18.01300000       0.73204202      -0.56844255       0.58742132        1
C        3.10711000      10.70650000       5.26229000       0.00473038       0.24054294      -0.02344290        1
C        0.98246000      11.81890000       4.46698000      -0.47922848      -0.08443092      -0.56440003        0
C        4.71125000       9.02996000       6.84986000      -0.65805035       0.30806366       0.33596873        1
C        4.48159000      10.43060000       7.32788000      -0.79342072      -0.14571631       0.12860717        1
C        1.45127000      10.29990000      17.18720000       0.35756426       0.07942901      -0.49258247        0
C        2.38547000      11.03690000      17.91450000       0.68566929      -0.69741166      -1.27350147        1
C        3.50443000      11.15300000      17.10080000       1.08380175      -0.23557356      -1.06332873        1
C        4.54946000      12.08920000      17.27400000      -0.90790966       0.61373923      -0.27434426        1
C        2.11650000       5.61744000      14.03280000      -0.68914077      -0.53937705       0.93473746        1
C        2.11743000       6.27567000      12.79510000      -0.53966074      -0.49434327       0.70806452        1
C        2.12882000       4.03562000      15.57410000      -0.59055531       0.24599165      -0.65549107        0
C        2.62129000       4.35278000      14.25010000       1.78360883      -0.43380341       0.84686845        1
C       30.40650000      11.38290000      11.76000000       0.40400180      -0.30477560       1.02148151        1
C       31.16960000      13.10950000      12.99960000      -0.02213135      -0.66530266       0.41678964        1
C       31.36760000      16.78810000      13.06740000      -0.32922755      -0.21637102      -0.92642867        1
C        0.56609900      18.93860000      15.72500000      -0.46980940       0.12915986      -0.00992472        1
C       31.49880000       8.19903000      15.32130000       0.45048580      -1.80926276      -0.57169392        0
C       31.23000000       6.95668000      14.75570000      -0.36946925      -0.67070613       0.61912680        0
C       31.18750000       4.66549000      14.71920000      -0.39898228       0.44557634       0.46400853        1
C       30.96140000       5.79874000      15.53770000      -0.71217429       1.24867903      -1.13967915        1
C       32.56580000       5.08770000      20.89520000       0.19118418      -0.82309882       0.27354701        1
C       31.92380000       6.09278000      20.14900000      -0.54296469       0.24071902      -0.12765095        1
C       32.49030000       7.39460000      20.23000000       0.20594681       0.00435959       0.66357120        1
C       32.43930000       8.24365000      19.05550000      -0.03725641       0.44928136      -0.44068766        1
C        2.45698000       9.39730000       2.22883000      -0.19309661      -0.61397034      -0.40556573        0
C        5.25353000      11.33080000       1.94670000       0.76304318      -0.16154520      -0.10554601        1
C        5.79078000      12.48070000       2.41437000      -0.26813376      -0.64579442      -0.59698836        1
C        1.38811000       3.54919000       2.49153000      -0.21958204       0.49085468      -0.67042244        0
C        7.34543000      12.74500000      14.24720000      -0.02732548      -0.12957683      -0.55232263        1
C        4.52248000      14.35270000      20.94050000       0.20099577      -0.41399803      -0.73694660        1
C        3.48202000      13.39870000      20.68670000       0.05179955      -0.71813167      -0.57006518        1
C        1.95675000      10.54790000       0.29223600       0.07337698      -0.77085552       0.11124906        1
C        1.68915000       9.81249000      12.11830000       0.10577590      -0.02075242      -0.80547489        0
C        2.17543000      10.95320000      12.36920000      -0.82108979      -0.51988838      -0.04093698        0
C        1.62593000       7.49793000      13.05170000      -0.50500347      -0.26257867      -0.30403215        1
C        0.75993400       8.26206000       9.65465000       1.31512492      -1.13699392      -0.92755485        0
C        0.39971300      12.64310000       9.52371000       0.20306227       0.71303757      -0.09352889        0
C       31.21130000      17.51420000       8.53305000      -0.51529684      -1.22395441       0.09727941        1
C       31.01950000      16.21270000       8.87209000      -0.68038077       0.60348744      -0.40615267        1
C       30.91990000      16.12370000      10.28920000       0.07382684       0.75529075       0.92519611        1
C       31.18580000       9.50289000      13.19100000      -0.05731686       0.06346757      -0.08045285        1
C       30.94930000      10.83660000      12.91690000       0.14828537       0.12214819      -0.31282884        1
C       31.21170000       6.51840000      13.37790000       0.35635615       0.04186385       0.56847679        1
C       31.73310000       9.30797000      14.47900000       0.41373758       0.06095818      -1.08494382        1
C       33.28110000       9.38780000      18.96710000       0.27271185       0.50249799      -0.40122486        1
C        5.85792000      18.98770000      17.11890000       0.06391706       0.79413360      -0.14195504        1
C        5.90773000      18.16070000      15.95290000      -0.28777284       0.34945478      -0.36282344        1
C        6.78905000      18.54070000      14.94340000      -0.52285240       0.08625543       0.06606011        1
C        2.92625000      12.59430000      21.75860000      -0.31990873      -0.45158630       0.22811460        1
C        8.57078000      19.92300000      13.86210000      -0.54781057      -0.30639701       0.34330175        1
C        3.32381000       8.94268000       3.30306000       0.12215969       1.41064854      -0.39770448        1
C        7.09026000      15.96820000       0.20648200      -0.41408118      -0.00414823      -0.29933423        1
C        4.85854000      14.61920000       0.05834100       0.01157199      -0.25395684       0.13504511        1
C        1.42537000       6.04484000       2.25413000      -0.06726283       0.40745615      -0.37135233        0
C        0.43968500       6.66542000      22.38840000       0.05796897       0.31999066       0.39834399        1
C        1.67150000       8.53050000       1.31712000      -0.74253104      -0.63605987       0.87826334        1
C        3.91911000      17.72010000      10.36480000       0.29935746       0.89284867      -0.22704344        1
C        3.86452000      18.22630000      12.68330000       0.61012224      -0.15942124      -0.99541183        1
C        0.64999700      13.44980000      10.42530000       0.41042384      -0.25823413      -0.28569534        0
C        2.79824000      11.99180000      12.73340000       0.48669722       0.49627404      -1.20585359        0
C       31.00090000      17.56830000      10.77860000      -0.21379951      -0.07782460      -0.37473821        1
C       31.19920000      18.36060000       9.62679000      -0.04533312       0.29514621      -0.04848924        0
C        1.20661000      13.32900000      15.21960000       0.52285851      -0.49300922       0.60660308        0
C       31.18440000      19.66470000       9.05990000       0.19464465      -0.16794768      -0.76778390        1
C        2.14289000       9.71744000      16.03750000       0.40955322       0.01918151      -0.02405111        0
C       32.47570000      14.25440000      14.57710000      -0.24773045       0.02773205       0.45517027        1
C       31.43300000      11.90270000      13.68480000      -0.25245649      -0.09483164      -0.10883432        1
C       32.40780000      11.76600000      14.72090000      -0.72269753      -0.40031022       0.16362760        1
C        6.27159000      14.25520000      17.55610000      -0.14308366       0.81804385       0.38807019        1
C        7.28609000      13.59660000      15.43250000      -0.15750147      -0.42214542       0.31560332        1
C        9.16326000      14.20430000      13.35430000       0.02192005       0.49192583      -0.78526721        1
C        7.17825000      15.35140000      17.68600000       0.38724115       0.59246285      -0.32135039        1
C        8.41683000       3.80317000       0.89468600      -0.56153017      -0.84397658       0.56887419        0
C        7.57232000      10.70310000       1.27748000       0.44385955      -0.37026773      -0.06897913        1
C       10.35280000       2.13319000       0.18930900       0.08383383      -0.93673671      -0.43422893        1
C        8.84277000       2.35868000       0.27619600      -0.21738592      -0.66648876      -0.70258524        0
H       17.75360000      17.69800000      19.66960000       0.12269598      -0.11477272      -0.28282960        0
C        1.11859000      16.36680000       5.27618000       0.42313220       0.91871781      -0.76443226        1
C        5.09218000      13.74030000       2.20142000      -0.04126713       0.12764606       0.35060297        1
C        2.77158000      17.57600000       6.86567000       0.37441540       0.38230111      -0.45531578        1
C        5.45755000      22.28200000       8.39154000       0.92056421      -0.46665340       0.04724543        1
C       11.67910000      13.61710000       7.76503000       0.30023297       0.61281358      -0.83517133        1
C        9.85267000      15.23420000       8.31996000       0.66367270       0.19694592      -0.43996500        1
C        2.69798000      13.03520000       5.40439000      -0.22453552      -0.40108913      -1.00971959        1
C        2.05145000      14.29040000       5.55805000       0.38707852      -0.08184425       0.72227812        1
C       11.53150000      20.40260000      10.95020000      -0.65780702      -0.32308185       0.19980112        1
C       10.63560000      19.30770000      10.92210000       0.23054427      -0.71052353       0.48720590        1
C        9.40121000      18.90120000      11.53310000      -0.36596843      -0.13877581       0.63041673        0
C        5.01377000      19.81380000      11.20270000      -0.32021321       0.35385801      -0.59702993        1
Cl       6.92811000       0.92624600      17.83790000       1.57501344       1.15747143       1.09743950        0
C        7.60390000      19.72420000      14.89510000       0.12800189       0.01698026      -0.65383420        1
C        3.10360000      18.97220000      14.63510000       0.95578396      -0.37609795       0.00457225        1
C        5.55303000      12.20460000      16.33430000       0.14539227      -0.47435692       0.26920981        1
C        8.63570000      19.08340000      12.80550000      -0.08257413      -0.23121068      -0.04912117        1
C        8.18706000      15.55050000      16.71310000      -1.05882890      -0.64788171      -0.09527771        1
C        9.12604000      16.62720000      16.82340000      -0.05047883      -0.08767043      -0.54802456        1
C        9.23863000      17.22340000      18.12820000      -0.82087458       0.48618977       0.45364913        1
C        8.32828000      16.85340000      19.16110000       0.25948503      -0.04230955       1.07581210        1
C        8.38493000       8.64347000       0.33181500      -0.47009675      -0.89135810       1.24520633        1
C        9.09635000       7.47050000      22.18540000      -0.68434747      -1.07153848      -0.14609904        1
C        8.66580000       9.99391000       0.67514700       1.04363830       0.80610462       0.23552098        1
C        9.67954000      23.91160000       2.93667000       0.05549455       0.19124165       0.42830089        1
C        4.04289000      20.40270000       7.54693000       0.10822341      -0.28229601      -0.97056738        1
C        7.23662000       0.53776200       0.87854200       0.60311327      -0.52299669      -1.23588874        1
C        5.15091000      23.67690000       2.00305000       0.97311443       0.54465824      -0.53310174        0
C        4.86868000      23.55570000       3.44199000      -0.37257512       0.61182191       0.39510240        0
C       10.41800000      14.19380000       7.49678000       0.02733330      -0.53547761      -0.16135934        1
C        3.48497000       3.92075000      13.19320000      -0.00443231       1.34464284      -0.10149335        1
C       12.51850000      12.46740000       7.40862000      -0.16998606       0.09450198      -0.01561075        0
C        8.61716000      13.10750000       5.96867000      -0.29749394       0.33721353       0.88633125        0
C       11.18160000      21.74900000      11.20350000      -0.18510207      -0.19584664       1.28481219        1
C        9.52185000       3.05744000      10.71490000      -0.20046631       0.46129640      -0.64088007        1
C        4.98954000      20.37050000       9.86267000      -0.45574376       0.45719887      -0.08734700        1
C       10.04230000      16.96250000      15.74530000       0.66072824      -0.52568558       1.34020415        1
C        5.26423000      21.09950000      18.91600000      -0.56544307      -0.50979555       0.44431565        1
C        2.78929000      22.11840000      20.68100000      -0.76922189      -0.91474622       1.18291911        0
C        7.44762000      20.65330000      16.02860000      -0.24613105      -0.54223347      -0.36832106        1
C        6.67726000      20.12370000      17.12500000      -0.35732215      -0.74061616       0.04657253        1
C        7.25003000      16.03780000      18.89330000       0.50867548       0.48415628       0.74216787        1
C        6.39008000      15.78090000      20.03660000      -0.43180905      -0.27168227      -0.07586852        1
C        5.99302000      15.27990000       0.74644700      -0.13347995       0.21839227       1.08905848        1
C        9.56354000      17.00990000      21.41030000      -0.52384530      -0.49129855      -0.54700720        1
C        8.35385000      16.86350000      20.59470000       0.00356172      -1.55595155       0.93609353        1
C       12.03610000      17.50910000      21.77940000       0.76044966       0.75724964       0.11080470        1
C       16.16380000       9.31819000      15.88290000       1.09524575       1.34233179       0.43072933        1
C       10.82250000      17.55100000      20.90640000      -0.11236583       1.21590362      -0.02588443        1
Cl      12.46980000      22.18340000      18.58790000       0.41422174      -0.55242799       1.90739413        0
C        6.54986000      -0.06101670       1.88167000      -0.41836947       0.27165292      -0.51802975        1
C        6.07555000      23.29570000      19.74180000       0.62878188      -0.22176348      -0.48873927        1
C        6.08391000      23.94210000      21.10090000       0.55862362      -0.99208220      -0.46225629        0
C        6.69766000      23.48670000      18.51210000       0.24154807       1.33637685       0.91030019        1
C        7.41415000       2.22295000       4.96971000      -0.45275039       0.31056180       0.25158220        1
C        6.44772000       0.62877300       8.52707000       0.46027538       0.09116147      -0.16404701        1
C        1.25644000       1.83789000      16.71500000       0.35913553      -0.30889148       0.04550871        0
C        2.19548000       2.72579000      16.08950000      -0.07552516       0.21815138       0.70103720        0
Cl      18.17430000      21.08450000      22.06010000      -0.56788529      -0.44465274       0.30271841        0
C        5.58796000      21.69820000       9.62952000      -0.35421629       0.12875390      -0.18172353        1
C        6.17318000      22.39690000      10.72990000       0.53475005       0.49441297       0.07034021        1
C        6.02457000      21.78140000      12.04910000       0.11675096       0.70807675      -0.10822390        1
C        6.05985000      22.77050000      13.06950000      -0.76034083       0.10283132      -1.39882425        1
C       31.02070000      23.89410000      18.95410000      -0.33707780       0.29533574      -0.28148163        1
C       31.84370000       3.27047000      19.31210000       0.71631340      -0.31815160       0.22839951        1
C        5.13684000      22.20820000      19.77980000       0.14705526       0.88027604       0.54959950        1
C       31.41380000      22.55350000      19.12620000      -0.79369584       0.47521531      -0.59820747        1
C       10.32580000      12.96210000       2.10134000      -0.42313098       0.04939618      -0.32655577        0
C       11.88780000      17.11230000       0.81371400       0.29723227       0.44213788      -0.00643162        1
C       11.09150000      17.88710000      16.01240000       0.29123575       0.59064824       0.78496886        1
C       10.29920000       1.54787000      17.92340000       0.81320775      -0.53293789       0.43403451        0
C       12.55140000      18.83760000      17.94320000       0.28936612      -0.15280110      -0.71483016        1
C       15.59920000      19.47580000      16.01580000      -0.64629943      -1.31715474       0.71166072        1
C       13.58150000      18.04360000      19.94730000       1.23067970       0.16055964      -0.28233513        1
C       13.89910000      19.07000000      17.51460000       0.18801963      -0.37854595       0.60386161        1
C        0.73301600       3.90522000       0.01789640      -0.08003453       0.87633013      -0.58202397        1
C        1.40989000       2.35336000       3.20817000      -0.24689162      -0.34549909       0.97032038        0
C        1.58281000       1.86777000       0.97866400       0.45522774      -0.48639153       0.53414233        1
C        2.32147000      24.06900000       2.25780000       0.35309011       0.22715227       1.16234828        1
C        6.08682000       3.30780000       9.30340000       0.22462112      -0.57797412       0.55708047        1
C        6.56994000       3.19241000       8.02107000      -0.01226278      -1.09480433       0.81999540        1
C        5.95351000      23.55720000       7.93081000       0.13959140      -1.22193315      -0.88815564        1
C        6.38542000       0.83613900       9.95268000       0.13923068       0.84161906      -0.04201608        1
C        6.22532000      24.03920000      12.41930000       1.50642894       0.94010547       0.14360946        1
C        6.39378000      23.80790000      10.93890000       0.65000568       0.48660185      -0.42101190        0
C        8.20372000       4.64355000      11.81770000       0.05833079       0.59878096      -0.62470879        0
C        5.44447000       2.82865000      11.38600000      -0.34526553       1.13074307      -0.43791806        1
C        5.58711000       4.51252000       9.94334000      -0.68329099       0.35380788       0.61168007        1
C       32.00120000       0.70632800      19.32070000       0.83603339       0.62618347      -0.13840897        1
C       31.88300000       2.01276000      18.64860000      -0.23188932       0.00200205       0.43145933        1
C        6.07416000       2.22265000      10.24780000       0.10160022      -1.03174431      -0.00433951        1
H       24.79170000       6.59477000      13.18430000      -0.14752989       0.29097451       0.06568192        0
C        9.67590000       1.40718000      19.11230000       0.19920195      -0.99761651       1.16002744        0
C        0.69659600       8.97327000      21.30790000      -0.81125375      -0.41720661       1.02208557        1
C        0.10383900       7.66799000      21.35240000       0.48761186       0.50247843       0.51869372        1
C        0.78881000       9.79388000      20.13840000       0.01295414       0.11351133      -0.18488197        1
Cl       1.69659000       2.96134000       5.72522000      -0.70639469      -1.22773484      -0.35687779        0
Cl       0.52661400       0.10511400       6.40904000       0.76250725       0.84717053      -2.13227386        0
C       14.69600000      22.00630000      15.32240000       0.66163554      -0.21542336      -0.56329464        1
C       14.21630000      21.46750000      16.57550000      -0.17771525      -0.05528325       0.21208150        1
C       14.50830000      20.09420000      16.75990000      -0.29642768      -0.48179143       0.28587753        1
C       14.87370000      18.10700000      17.85700000       0.29562798      -0.00732486       0.73675462        1
C        1.78541000       1.25462000       2.23468000      -0.80427778      -0.46418094       0.68264658        1
C        5.83611000       6.64943000       1.57473000      -0.09606506      -0.09214850       0.62364987        0
C        6.56677000       5.42875000       3.72856000      -1.10361324       0.45017277      -0.33685158        1
C       32.48890000       9.78719000      16.61310000       0.25024571       0.34278696      -0.52013783        1
C        7.47074000       3.62747000       4.80160000      -0.62531774       0.41527094       0.67118301        1
C        7.38227000       4.26707000       3.51537000      -0.39997518      -0.22536946       0.30984647        1
C        6.68164000       1.75754000       7.55774000       0.41710022       1.27248656       0.75055248        1
C        6.84879000       1.37487000       6.16727000      -0.20929723      -0.36591463       0.60448278        1
C        9.02703000       5.13702000       9.43902000      -0.28781931       0.04902580       0.15594487        0
C       10.08160000       2.06117000       9.87746000       0.28808465      -0.44384488      -0.10932685        1
C        5.88938000       7.45177000      11.37380000       0.39917671       0.68305377       0.36720589        1
C        5.84985000       5.73077000       9.36751000      -0.58171950      -0.34174026       0.22786760        1
C        4.85171000       4.11671000      11.12060000      -0.20442445       0.34292880      -0.35583280        1
C        5.68923000       9.50946000      13.07980000      -0.91045304      -0.05009683       0.42038828        1
C        7.26502000       5.45422000      12.54380000      -0.21279071      -0.62754564       0.29637632        0
C        6.35098000       6.60537000      12.48440000      -0.77969500       0.46315747      -0.69374576        0
C        1.62747000      11.01120000      20.23640000       0.26921837       0.04233523       0.86970999        1
C        2.14427000      11.40260000      21.52940000      -0.04130883       0.68048960      -1.09742597        1
C        2.35340000      11.70670000      19.18220000       0.10822892       0.60219374      -0.41322156        1
C        4.38570000      12.99260000      18.43860000      -0.21648351      -0.24557346       0.67054594        1
C       14.75640000      17.68220000      19.17830000      -0.59593188      -0.37660173       0.28008889        1
C        7.88272000       3.56314000       2.29076000      -0.54818963      -0.30785456       0.14398119        1
C       13.30770000      22.40990000      17.11180000       0.02088766       0.35532168      -0.25672644        0
C       15.80770000      18.19440000      16.71110000       0.01726664       0.36436292      -0.47678047        0
C        1.59939000       8.47226000      11.98200000       0.07000492       0.89921813      -0.03574408        1
C        1.44696000       7.67797000      14.53380000      -1.26003866      -0.19508974      -0.32133939        0
C        1.57554000       6.29769000      15.12750000      -0.04939483      -0.68994047       0.05383976        0
C        1.52490000       5.21911000      16.04370000      -0.57204608       0.77406410      -0.68453211        0
C        5.46942000       8.28109000       9.12603000      -0.41351748       0.41373513       0.77133974        1
C        5.74529000       7.14986000       9.97270000       0.10909122       0.80123061      -0.24568351        1
C        6.56435000       4.39567000       7.24053000      -0.37973572       0.00813175       0.27308725        1
C        6.16117000       5.62229000       7.95470000       0.18931944      -0.34397306       0.19958346        1
C        3.70735000       4.68010000      11.89360000      -0.47231488      -0.10326724       0.33692862        1
C        2.76892000       5.75955000      11.63950000       1.04760011       0.58034876       0.83059569        1
C        2.21421000       6.52945000      10.55260000      -0.26605014      -0.51335751       0.19115117        1
C        1.59618000       7.75649000      10.65330000      -0.42549094       0.57652513      -0.35515049        1
C        5.67664000      11.25390000      15.28510000      -0.20470080      -0.07834086       0.71029732        1
C        4.43781000      14.00570000      13.42670000      -0.17765534      -1.46347266       0.35854860        1
C        3.52553000      10.33540000      15.95280000       0.37399354      -0.30305148      -0.42658411        1
C        6.45142000      11.59560000      14.14500000      -1.45825138       0.23346426       0.28781808        1
C        3.82004000      11.45570000       1.47727000      -0.41201468       0.12670452      -0.15705760        1
C        5.30734000      14.82720000      19.85580000      -0.52134104      -0.46034386       0.13019800        1
C        5.34830000      14.02000000      18.62800000       0.06907292      -0.74802743       0.91594088        1
C        8.20072000      14.70240000      15.52060000       0.36928584       0.11648599      -0.07184141        1
C        7.15074000       0.13667300       3.33109000       0.07594751      -0.86050123      -0.26315338        1
C        8.35684000       1.39129000       1.36585000       0.28368875      -0.42081992       0.13374529        1
C        7.48016000       1.53108000       3.71350000      -0.64739504       0.60400467      -0.96870019        1
C        7.90274000       2.19348000       2.56053000       0.88968656       0.58083910      -0.36947781        1
C        2.68594000      15.24590000       6.36781000       0.26005363       1.01229599       0.42667459        1
C        3.46581000      17.30710000       8.06834000       0.05125370      -0.38483594      -1.83108940        1
C        7.00853000      15.97670000       8.92380000       0.00548838       0.95944007      -0.51293565        0
C        4.64112000      21.66730000       7.42092000      -0.03768879      -0.17072217      -1.53065222        1
C        3.75051000      11.27070000       6.44635000      -0.10266465       0.79427055      -0.02715734        1
C        3.48082000      12.68370000       6.55006000       0.81830919       0.86930770      -0.16171273        1
C        5.68611000       8.82789000      11.75590000       0.87864607       0.45144446       0.18098619        1
C        8.92556000       4.35804000      10.55160000       0.89381344      -0.06492060       0.44858682        0
C        5.40645000       9.65510000       9.49835000       0.66277028       0.48218883       0.01818617        1
C        4.94539000      10.72330000       8.68789000       0.02740068       0.51594002      -1.12472210        1
C        4.94675000      11.98840000       9.38202000      -0.83865504      -0.21534999       0.06441302        1
C        3.80368000      13.55070000       7.61366000       0.17594467      -0.38242461      -0.45851091        1
C        8.41736000      13.01900000      13.31450000       1.21387380       0.13421851      -0.26110155        1
C        6.10109000      16.40190000      13.75030000       0.00173145       0.44942809       0.57650923        1
C        6.99031000      16.02500000      11.41920000      -0.30781788      -0.31235440      -0.12619707        1
C        6.10563000      15.55460000      12.49890000       0.34269036      -0.46395595       0.22171824        1
C       15.76630000      11.85320000      12.25770000      -0.59494754       0.04601788       0.05883995        1
C       15.82930000      13.09550000      12.84690000       0.09068617      -0.07919460      -0.00938566        0
C        4.31449000      13.72650000       1.01934000       0.39539831      -0.16102675       0.15511949        1
C        7.19890000      16.37850000      21.14060000      -0.37388105      -0.42313342       0.34938141        1
C        5.96247000       8.95238000       1.08828000      -0.48475300      -0.42727743      -0.30470957        1
C       11.27860000      18.39940000      17.28510000       0.22860616      -0.46137833      -0.70463462        1
C        6.19153000      10.28900000       1.43598000       0.00167770       0.13238189      -0.15946892        1
C        7.07350000       8.21693000       0.57572600      -0.73825986       1.12702582       0.60326734        1
C       10.25150000       7.38004000      21.40810000       0.30820428      -1.37266897      -0.22146145        1
C       10.56740000       6.12156000      21.00780000      -0.72692713      -0.70973117      -0.44782503        1
C        6.36536000      13.36660000      16.52090000       1.36688522       0.40729352       0.08794054        1
C        2.16346000      16.47040000       6.18924000       0.48266938      -0.94413820       0.54715883        1
C       12.99700000      17.84700000       5.87636000       0.65159285       0.43909071      -0.28327301        1
C       12.30080000      18.77140000       5.05369000       0.29543356       0.00881319      -0.69240926        1
C       14.27470000      15.79530000       6.13264000       0.33699587       0.49712265      -0.26090591        1
C       13.28120000      16.57180000       5.41390000       0.70267206       0.27474656       0.01381925        1
C        5.37685000      12.23000000      10.75070000      -0.34422495       0.45170491      -0.50565154        1
C        5.35851000      14.32690000      12.40500000      -0.91547011       0.81414807      -0.41229836        1
C        5.00305000      13.63230000      11.11320000       0.56460791      -0.20415788      -0.23046478        0
C       10.59050000      15.98380000       9.27112000       0.01776003      -0.79415683      -0.08680519        1
C       11.15070000      18.13030000      10.39280000      -0.25041689       0.41535776       0.00777765        1
C       12.51380000      17.68400000      10.61240000      -0.25662617       1.25084335       0.64824610        1
C        4.39728000      13.22500000       8.88499000       0.66369715      -0.14462804      -0.15131298        1
C        7.40423000      15.82290000       7.59939000       0.57837519      -1.00424398      -0.07437868        0
Cl      12.25980000      18.20070000      14.81220000       3.12248668       0.19281350      -0.39645469        0
C       15.37720000      19.40430000      12.35240000      -0.85243333      -0.42151324      -0.11045095        1
C       15.05790000      20.71320000      12.04440000      -0.42449927      -0.41369233      -0.12388968        1
C       15.17950000      21.72840000      13.02910000       0.15340149      -0.79646422      -0.44472895        1
C       15.40010000      21.26250000      14.35610000      -0.96346669      -0.64195734      -0.71551492        1
C       14.19920000      17.21520000       1.20794000       0.36043046      -0.05871156       0.52550828        1
C       12.97800000      17.25190000       1.77716000       0.40361907       0.95681110       0.22092343        1
C       10.39650000      18.02760000      18.37420000      -0.41790970       0.10209264      -0.37110289        1
C       11.11040000      18.07860000      19.62680000       0.75562701       0.22361721       0.09391468        1
C        0.09097040      14.23610000       4.00806000      -0.07099721       0.37967580       0.23021289        0
C       11.95870000      20.07780000       5.57604000       0.48223774      -0.27650369       0.26349331        1
C       10.81770000      20.78780000       5.32509000      -0.19680286      -1.15440876      -0.65460700        0
C       11.26200000      22.81350000       4.42126000      -0.31025488       0.34030349      -0.25900570        1
C        7.87723000      17.13120000      11.66310000       0.97468448      -0.40935024      -0.45009084        1
C        8.14619000       1.60919000      21.28130000      -0.64540069      -0.02442602      -0.30387319        0
C        5.51498000      23.55900000       6.58724000       0.34471039       0.37690987       0.26446420        1
C        4.65558000      22.44370000       6.26460000      -0.25127651      -0.13623243       0.10738080        1
Cl       8.71623000      11.91470000      11.99980000       0.37157793       1.00532727       0.44862985        0
H        9.11053000      20.84710000      13.84910000       0.10416392       0.10108831       0.20802101        0
C        8.67061000      15.15790000       7.54003000       0.20358073      -1.10727669       0.53380973        0
C       11.98130000      15.61860000       9.50757000      -0.33529009       0.85145633       1.26781554        1
C       12.34130000      14.38350000       8.84945000      -0.64669316       0.26236835      -0.75814227        1
C       14.77780000      10.22000000       6.97657000       0.21881780       0.14201618      -0.72469311        1
H       10.14880000      22.02750000      11.15440000      -0.23342652       0.15816846      -0.21444294        0
C       14.61730000      18.40390000      11.67210000      -0.54047144       0.68645677       0.46524721        1
C       13.42770000      18.69180000      10.96600000      -0.18964226      -0.83824785      -0.15282433        1
C       12.87870000      16.34740000      10.40210000      -0.34528265       1.63966310      -0.05015088        1
C       14.94490000      17.01190000      11.83440000      -0.17123819       0.11427826       0.55365669        1
H        6.69270000      15.84910000       6.78481000       0.06962343      -0.04233516       0.11699238        0
C       15.85160000      19.96240000      14.66070000      -0.10127435      -0.10383278      -0.39789156        1
C       12.38130000       0.09544220      13.60650000      -0.08914999      -0.40378903      -0.26571143        1
C       11.70270000       0.80526400      14.63850000       0.86185363      -0.55308809      -0.91269440        1
C       10.53310000       1.61432000      14.24170000      -1.07466635      -0.95311463      -0.61340052        1
C       20.32660000      18.82390000      21.57270000       0.36431401       0.99355443      -0.66964353        1
C       18.82010000      16.92040000       0.06551700       0.01654275       0.09562449      -0.28953609        1
C       12.43170000      18.40670000      19.22880000      -0.36829294       0.59351444      -0.45707170        1
C       12.14060000      18.51420000       3.68164000       0.66908594       1.03885111      -0.05130396        1
C       10.24050000      21.89690000       4.85077000       0.18630040       0.23746276       0.51973308        1
C        8.83843000      22.29580000       4.46823000       0.42697418      -0.14934430      -0.15432102        1
C       11.05400000      23.68450000       3.30958000      -0.53567325      -0.25199428      -0.51865337        1
C       12.14470000       0.07218980       2.64670000       0.29622470       0.49574580       0.99369872        1
C       16.28670000       8.36800000       7.06666000      -0.33097123       1.38440767      -0.16498366        1
C       13.57910000      10.48750000       6.26554000      -0.50887235      -0.82555417       1.11446541        0
C        5.94413000      23.96170000       4.19588000       0.35215590       0.45807682      -0.57579390        1
C        6.14646000       0.23204900       5.61368000      -0.06080484      -0.09476586       0.06847057        1
C        9.19664000      14.09290000       6.73185000      -1.03964592      -0.64602186      -0.72301179        0
C        7.23058000      12.75550000       2.52876000       0.75476740       0.36036932       0.76984306        1
C        7.40877000      14.17270000       2.41091000      -0.77439058      -0.24022257      -0.43061073        1
C        6.13422000      14.66840000       2.02430000       0.37503657       0.38202354       0.54847210        1
C       13.45480000      22.36460000      11.65980000      -0.10043491      -0.31441234      -0.50521012        1
C       14.21710000      22.77920000      12.76410000      -0.72142829      -0.16059755      -0.76813239        1
C       12.92690000      20.05660000      10.87230000      -0.39928920      -0.77725189       0.28743413        1
C       13.90160000      21.03690000      11.22380000      -0.06651119       0.06001969       0.06812453        1
C       10.22390000       1.71457000      12.75930000      -0.03342177      -0.86291867      -0.52139851        1
C        9.52641000       2.74184000      12.11680000      -0.81646279       0.92837900       0.25186956        1
C        8.68177000       3.65963000      12.77240000      -0.70425189      -0.45173059      -0.16170783        0
C        9.71469000       2.22091000      15.27880000      -0.62095608       0.00018440       0.88237189        1
C       17.45120000       0.11319000      21.10260000       0.40254913       0.55802935      -0.03934101        0
C       16.83320000       1.08119000      20.11820000       0.23501108       0.67690685      -0.29073931        1
C       18.25280000      21.75030000      20.47390000       0.08071036      -0.18554350      -1.11311057        1
C       17.85890000      23.08290000      20.25070000      -0.30174922      -0.54160741       0.46725501        1
C       11.99310000       0.77284900       1.40776000      -0.33921399       0.84951700       0.65670040        1
C        8.55757000      23.41990000       3.66435000      -0.25758239      -0.74155281      -0.48478357        1
C        7.09022000       0.66137700      21.73690000       0.30815048      -0.39360327      -0.01887936        0
C       13.02120000       1.41144000       0.71535000       0.53625407      -0.15110144      -0.37488617        1
H        5.86869000       5.18584000      16.83450000      -0.20998925       0.02996223      -0.10036628        0
C       18.28000000       6.79449000       8.06049000      -0.24220715      -0.15459003       0.16720179        1
C       20.13380000      11.16420000       5.97635000      -0.53778866      -0.23877847       0.48857908        1
C       16.85000000       7.27036000       6.33738000       1.14717479       0.39770081       0.59131099        1
C       17.95290000       6.46970000       6.75002000      -1.03618056       0.24556612      -0.53631888        1
C       16.68340000       8.35716000      14.94070000       0.12860105      -0.24968812      -0.07133420        0
C       17.59370000       8.35388000      11.40630000      -0.05403113       0.26050483      -0.53039573        0
C       18.25090000       7.69285000      10.26290000      -0.69855251       0.84694916       0.52392233        0
C       18.91990000       5.96932000       9.01411000      -0.30304170       1.18582689       0.75049378        0
C       13.08300000      23.48910000      16.20920000       0.26988845       0.17310048       1.03281057        1
C       12.08190000       0.38715300      16.01230000       0.46708627       0.13375874      -0.71787000        1
C       13.64650000      23.56820000      13.77170000       0.21724653       0.11989155       0.57175995        1
C       13.97460000      23.22960000      15.10700000       0.64183139      -0.65718707       0.63578474        1
C        8.71991000       3.22954000      15.19970000      -0.37988612       0.05933971      -0.01304242        0
C        8.21696000       3.88099000      14.10130000       0.77211743      -0.12941665       0.06459204        0
C        7.27375000       4.97422000      13.94140000       1.05291064      -0.76119433      -0.58943035        0
C        6.37320000       5.67826000      14.67940000       0.30084314       0.09642786      -0.23571051        0
C       11.15980000       0.92908900      16.89540000       0.96936538       0.14674467       0.62931501        1
C       10.20220000       1.85011000      16.55020000      -0.25631192      -0.16582127      -0.14709316        1
C       13.81120000       2.86146000      21.23710000       0.05095229       0.23458189      -0.05661890        1
C       11.39340000       2.86030000      21.86770000       0.70833353      -0.31265398       0.39806642        1
C       10.66650000       1.06482000       1.01959000       0.94157036      -1.24316429      -0.05291289        1
C       12.73470000       2.34660000      22.00990000      -0.40065382      -1.27660734       0.50945072        1
C       11.23500000       4.05924000      21.13770000      -0.77845144       0.22483999       0.09993162        1
C       12.42600000       4.79930000      20.53950000      -0.86347137       0.03951721       0.88057807        1
C       14.45490000       8.42529000       5.42195000       1.15146553       0.52607198       1.00317282        1
C       17.05930000       8.80076000       1.78529000       0.09283912       0.27646457      -0.19570113        1
C       18.68180000       8.41404000       3.67980000      -0.23942654      -0.23124859       0.48681339        1
C       16.75440000       8.82578000      21.06520000       1.05485486       1.15112315      -0.43777622        1
C       19.11510000       6.56628000      10.23580000      -0.19381927       0.29283026      -0.79310402        0
C       17.72400000       7.85339000       8.91403000      -0.39921706      -0.79525000       0.36318905        1
C       16.73580000       8.72628000       8.37648000      -1.09483612      -1.28412744       0.15977462        1
C       16.12680000       9.83719000       9.05388000       0.29217730      -0.76240366       0.73945941        1
C       16.91230000      14.88420000      15.68670000      -0.33381175       0.74349459      -0.02934245        1
C       15.75150000      14.40640000      12.23370000       0.45843265      -0.32781523      -0.21591736        1
C       16.14470000      12.82450000      14.34460000       0.24446684       0.68967390       0.81649581        1
C       16.44780000      13.52630000      15.54230000      -0.02244096       0.69534393       0.82045517        1
C        5.86464000       5.87217000      15.97220000       0.33984495       0.67386090       0.08678514        0
C        5.05122000       7.00570000      15.89180000       0.57226251      -0.60539864      -0.84541090        0
C        5.15033000       7.72799000      14.61230000      -0.10142818      -0.34545751      -0.43421793        0
C        5.84910000       6.72229000      13.81250000      -0.84853510      -0.03049774       0.42072577        0
Cl       4.18000000       7.57095000      17.26420000       0.39031941       1.12708374       0.68232634        0
C       16.22390000       9.55694000      12.78490000       0.44463480       0.09189966       0.94657031        1
C       16.82730000       8.51991000      13.56900000      -0.32112296       0.14879772       0.18826663        0
C       16.63690000       9.35431000      11.42660000      -0.36081319       0.45287389      -0.28441142        1
C       17.81530000       7.86337000      12.77890000      -0.84478973      -0.17707941       0.33921522        0
C       11.93520000       6.09872000      20.42750000      -0.24215212       0.67144591      -0.05759639        0
C       15.95120000       6.03739000      17.63880000      -0.75817040       0.83625472       0.19795716        0
C       12.46430000       7.37839000      20.48580000      -0.58510905      -0.11239860      -0.54695218        1
C       14.25570000       8.77529000      21.31440000       0.53499461       0.14091934      -0.57754859        1
C       19.23410000      10.34990000       5.18812000      -0.24839808       0.06051480      -0.12643306        1
C       17.96940000      10.93940000       4.88888000       0.63806523      -0.66677244      -0.67904427        1
C       17.56330000       9.16319000       3.13259000       0.88141078      -0.26513061      -0.41557908        1
C       19.46840000       9.01308000       4.73933000       0.57590029      -0.94837024       0.45223193        1
C       15.18210000      10.60780000       8.27693000       0.49819503      -0.47881640       0.15936743        1
C       14.69980000      11.85910000       8.71306000      -0.35064455      -0.03656786      -1.48946897        1
C       15.13910000      12.42510000       9.98521000       0.75514157      -0.17384271      -0.27733519        1
C       14.43170000      13.69620000      10.20770000       0.65475373      -0.73312663       0.80232745        0
Cl       2.27909000       5.90258000       8.92818000      -1.45100135       0.54773630       0.06908688        0
C       17.45550000      15.64550000      14.63570000       0.06287525      -0.53067452       0.11729901        1
C       16.59470000      15.43850000      12.62970000      -0.90605837       0.04573334       0.92741912        1
C       14.73200000      14.69220000      11.16770000      -1.04072808      -0.41083347       0.01092585        1
C       14.15560000      16.03530000      11.04120000      -0.62532874       0.02169836      -0.36418195        1
C       13.62640000      12.58360000       8.19040000       0.31974855      -0.10959745      -0.10819333        0
C       13.55100000      13.71490000       9.08402000       0.20282016      -0.31901977      -0.61453893        0
C       16.26340000      10.25150000      10.39320000       0.55446861       0.03410225       0.17860666        1
C       15.81140000      11.56150000      10.89260000      -0.66972546      -0.31827021      -0.02590033        1
C        8.34755000       6.27068000       0.39781700      -0.10682431       0.05515755       0.16851383        1
C        7.02817000       6.80483000       0.80413000      -0.36860475       0.09795915       0.00971436        0
C       10.08460000       4.89989000      21.48180000       0.61620191      -0.22521906      -0.30301602        1
C        8.91480000       4.96403000       0.16519200      -0.32817595       0.15833418       0.27624080        1
H        9.88159000      14.24010000      12.55450000       0.06211507       0.06225330       0.05721222        0
C       17.15470000      10.40370000       3.86951000      -0.76539703       0.78934641       0.14446052        1
C       13.22940000       9.30098000      22.10220000      -0.27819480      -0.48319518      -0.27195862        1
C       11.79150000       9.29230000      21.95990000      -0.00763235       0.45428742      -0.31682488        1
C       11.47660000       8.20647000      21.17990000       0.26115046      -0.11977673       0.72098075        1
C       15.76700000      13.90710000       6.03973000      -0.14807995      -0.44016309       0.95868929        1
C       14.64320000      14.58270000       5.47904000      -0.15509504       0.89657081      -0.26404234        1
C       17.53000000      12.10750000       5.67411000       0.68962010      -1.01617220       0.26356545        1
C       16.30860000      12.75290000       5.29416000       0.10798069      -0.61856432      -0.56310389        1
C        5.05133000       9.07883000      14.25540000       0.14891144       1.36262995       0.48782952        1
C        6.08509000      10.88190000      12.89460000      -0.45414681       0.30176145      -0.97216311        1
C        5.63899000       9.86698000      10.88980000       1.20445350       0.58104819       0.89707949        1
C        5.84303000      11.14630000      11.51180000      -0.07252275       0.48099907      -1.04146542        1
C       16.43230000      17.68520000      13.66290000      -0.07900972      -0.30600817       0.72678407        1
C       10.14080000      17.10950000      10.15660000      -0.54466069      -0.47356701       1.09789062        1
C       16.04750000      16.71340000      12.67660000      -0.27088502       0.28198787      -0.16952018        1
C       15.99470000      19.02150000      13.60370000       0.36203352      -0.17260159      -0.13384678        1
C       16.16550000      12.93930000      16.83600000       0.77897723       0.51927454       0.26574934        1
C       16.12870000      13.72860000      17.94170000      -0.31288875       0.71091727       0.64183017        1
C       16.27100000      15.16830000      17.95470000      -0.93351346       0.39855920       0.08555257        1
C       16.54480000      15.78440000      16.71230000       0.06780526       0.75743551      -0.12787350        1
C       11.70520000      13.00660000       2.44314000       0.64737914      -0.71120707      -0.14591929        0
C        9.83125000      14.35700000       2.14296000      -0.20741048       0.10912265       0.35243837        1
C        8.37984000      15.89750000       0.98775600      -1.17522416       0.26726926      -0.67634682        1
C        9.51159000      16.45220000       0.39002600       0.40864836      -0.06956533       0.43180049        1
C       15.59240000      12.22300000       4.25865000      -0.10161612      -0.95180259      -0.16909221        1
C       13.98660000      14.02690000       4.28986000       0.21916996      -0.24633770       0.10874615        1
C       14.43760000      12.83430000       3.76057000      -0.37214592      -0.65010228      -0.81899639        1
C       14.92400000      16.27970000       7.30283000       1.03143984       1.32105541       0.40456428        1
C       21.77130000      17.06710000       8.16735000       1.23796747       0.00602381       0.51153312        1
C       21.55890000      18.39410000       8.62756000       0.35315858      -0.16449944       0.14391882        1
C       18.69900000      16.80870000       9.71604000       1.17611556      -0.22040252       0.02196493        1
C       20.00470000      17.15170000       9.58264000       0.22199703      -0.45236888      -0.79732383        1
C       16.00170000      15.49510000       7.85192000      -0.67220037       0.15547899      -0.41178357        1
C       15.54360000      18.23760000       8.64032000      -0.05527066      -0.21166331       0.06632949        1
C       15.72360000      19.63070000       8.72824000       0.67770166       0.07942412      -0.14104651        1
C       14.72030000      20.45520000       8.10553000       0.68169159      -0.88874257      -0.34378230        1
C       18.24350000      22.42790000       9.30139000       0.02214443       0.27364117       0.61648070        0
C       17.94110000      23.78040000       8.69858000       0.47429334       1.12194027       0.00803681        0
C       17.00710000      20.17470000       9.17878000       0.55920199      -0.17569278      -0.39954721        1
C       17.11000000      21.60320000       9.15232000       0.31458230      -0.58490851      -0.23912574        1
C       16.14280000      15.61270000      19.27150000      -0.07598260      -0.80190804       0.32784214        1
C       13.98000000       7.64243000      20.36020000       1.09349717      -0.16747569       0.68542963        1
C       21.87310000       6.65372000      17.67740000      -0.39930754       0.48856685       0.28955199        1
C       20.56250000      19.49970000      20.38250000      -0.36428955       0.29784855       0.20077812        1
C       12.06630000      14.44270000       2.70443000      -0.34621686       0.73220099       0.45457600        0
C       13.05040000      14.87630000       3.62239000       0.00080116      -1.47055256       0.98321215        1
C       10.95850000      15.17980000       2.10156000       0.28851018       0.73409507      -1.90625372        1
C       10.78650000      16.29800000       1.18474000       0.52374870       0.16398221       0.53327538        1
C       14.61350000      17.60700000       7.70034000       0.48822203      -0.28350656       0.61354481        1
C       13.72240000      18.43620000       6.95360000      -1.03763934      -0.02186882       0.32259641        1
C       13.75380000      19.81550000       7.18502000      -0.02866491       0.01090139       0.36764242        1
C       12.93030000      20.72430000       6.39654000      -0.17267495       0.19141407      -0.19715013        1
C       21.89820000      21.88260000       7.41275000       0.55887551      -0.72580095       0.78961420        1
C       22.60140000      21.59590000       6.22209000       0.18945639       1.94280263       0.10470266        1
C       21.95030000      19.45360000       7.89431000       0.48570555       0.01780381      -0.72510764        1
C       21.34040000      20.74450000       8.10214000      -0.00909883      -1.03498101       0.53392468        1
C       16.10010000      22.41480000       8.52245000       0.08025891       0.71596001      -0.26665420        1
C       16.22540000       0.25737400       6.93638000      -0.09322638       0.41953478      -0.64650363        1
C       14.96410000      21.81900000       7.96105000       0.94582564      -0.50386384       0.45422506        1
C       14.24720000      22.66630000       7.01341000       0.22787127      -0.09065817      -0.67347940        1
H       17.74780000       1.22367000       5.56340000       0.03209363       0.01737676       0.00531622        0
C       20.37860000       1.13936000       6.40767000       0.69711697      -0.29547147       1.03388907        1
C       16.67250000      23.77770000       8.15360000       0.25901426       0.50499002       0.42186173        1
C       19.22660000       0.27185100       8.27490000       1.22015156       0.24286378       0.21868574        1
C       19.39860000       1.28971000       7.36207000       0.33497217       0.18972418       0.29087381        1
C       21.21410000      17.45810000      16.78020000       0.38478091      -0.33557744       0.15960465        1
C       22.06130000      16.27020000      16.96000000      -0.77861529       0.38192939      -0.73408162        1
C       22.02630000      15.36590000      15.83950000       0.27603170       0.08270032       0.74208472        1
C       19.91910000      19.34660000      17.95280000       0.75346636       0.54106938       0.13852392        1
H       11.66060000      19.15590000       3.01183000      -0.03902045       0.40155420      -0.23973762        0
C       13.32760000      17.70420000      21.28020000       0.40548136      -0.21591247       0.31006291        1
C       19.36260000      19.46800000      19.45090000      -0.78476221      -1.19265000       0.25338091        1
C       12.89560000      16.21940000       4.14453000      -0.67037109      -0.34627922       0.41722250        1
C       14.43260000      17.26630000      22.07040000       0.35246282      -1.35035323       0.08081589        1
C       13.12640000      22.13830000       6.29349000       0.65584079       0.93610331      -0.24102716        1
C       12.52940000      22.87590000       5.08022000      -0.88932217       0.98632290       0.14241114        1
C       13.24220000       9.24111000       5.58911000      -0.07742438      -0.28550825      -0.37573356        0
C       13.40980000       0.17299100       3.21364000      -0.73135115       0.42828989       0.27020515        1
C       21.29580000       0.95218100       3.37017000      -0.43384498      -0.31431085       0.14049504        1
C       20.66880000       2.13198000       4.07135000       0.13065288       0.93570101       0.06378830        1
C       22.77110000      22.72550000       5.37208000       0.00775651      -0.51879643      -0.22084272        1
C       22.17000000      23.96230000       5.48116000       0.13478588      -0.46562627       0.20223323        1
C       10.74800000       0.66698900      11.91300000       0.06052947      -0.24484713       0.29735822        1
C       10.51800000       0.92267600      10.57260000      -0.00907967       0.65347715       0.54019876        1
C        9.58233000       0.60631000       1.78556000      -0.65256985      -1.01780461       0.17079432        1
C       16.22650000       6.69627000       5.20143000      -0.18113048       0.25419651       0.82518244        1
C       18.77750000      24.03290000      14.21590000      -0.25658215      -1.31524720      -0.67823479        1
C       18.26190000       1.21078000      14.26310000       0.14122382      -0.32122200       0.16534683        1
C       19.79100000      20.72460000      15.76150000      -0.22111540       0.96011505      -0.11590150        0
C       18.85820000      23.17860000      15.36420000       0.80108999       0.64566603      -1.54323463        1
C       22.80990000      20.44300000      20.51370000      -0.60340796       0.63144387      -0.06946641        0
C       18.66760000      20.88630000      19.40000000       0.61009290      -0.73165196      -0.23285165        1
C       18.71830000      21.38660000      18.08530000      -0.49865968      -1.23162124      -0.82672192        1
C       18.22190000      22.74950000      17.79140000       0.68181876       0.69280422       0.62207615        1
C        5.72662000       1.09003000      13.11150000       0.40283771       0.38874517       0.40320210        1
C        4.95178000      23.72930000      15.04880000      -0.06092639       0.45957717      -0.12829413        1
C       12.55760000      17.27670000       3.22161000      -0.58924449       0.17376567      -0.96320379        1
C        5.27230000       2.32861000      12.62260000      -0.23974080      -0.05620547      -0.20750830        1
C       12.47080000      11.33180000       6.48968000      -0.35788585      -1.02512173       0.00602543        0
C       14.95640000       7.29988000       4.77221000      -0.59501479       0.71728062      -0.28040192        1
C        9.41249000       5.72592000       8.34610000      -0.08307534      -0.12541326      -0.27933688        0
C       15.78530000       9.21934000       1.11134000      -0.01601843      -0.90296351      -0.24895200        1
C       23.05650000       1.12422000      21.90450000      -0.08973522       0.10474485       0.78743398        1
C       26.61550000       0.73284300      21.33160000       1.15046896      -0.38447888       0.65294891        0
C       22.88130000       3.57672000      22.11000000       0.24035952       0.08096629       0.47179642        1
C       22.63880000      23.80100000      22.25140000       0.47582181       0.17986613      -0.33399761        1
C       12.09610000      22.66610000      11.58350000       0.54537724      -0.17126631       0.76213710        1
C       11.67590000      23.79850000      12.42610000      -0.12154536      -0.39539098      -0.39067594        1
C       13.50800000      23.79470000       4.54957000       0.79812842      -0.08783306      -1.00607448        1
C       15.30020000       9.05236000       6.40512000       0.99242947      -0.06477081       1.05536476        1
C       17.12030000       5.86683000      15.57430000       0.39900063      -0.68929239      -0.14146226        1
C       16.58150000       5.06382000      16.66850000       0.31828977      -0.02381818       1.04884000        1
C       17.73630000       1.67572000      15.50270000      -0.21077190       0.33414435      -0.97060895        1
C       17.41520000       3.05681000      15.58610000       0.64718839       0.29640078      -0.32519115        1
Cl      19.30050000      10.50320000      14.04440000      -0.30935137       0.41888456      -1.55386837        0
C       17.73000000      23.50500000      18.90410000      -0.72218641       0.31572193      -0.47230265        1
C       17.16120000       0.69167800      18.87230000      -0.55576843      -0.39827552      -0.65077481        1
C       17.05710000       1.46300000      17.77920000       0.20710723      -0.16762487      -0.40146208        1
C       16.48740000       2.79913000      17.91690000      -0.83468344      -0.94116562       1.32785407        1
C       15.59520000       8.98403000      21.90640000      -0.67242536       0.13508790       0.12565782        1
C       14.72390000       9.94422000       1.63395000       0.60101620      -0.23029726       0.42129069        1
C       13.88890000      11.91760000       2.89043000       0.80283613      -0.00551555       0.84725852        1
C       14.80020000      10.83110000       2.71427000       0.35226595       0.22674509      -0.24228663        1
C       17.60100000       0.25778500       0.18031000       0.38575180       0.51543623      -0.87662971        0
C       14.48670000       0.71969300       2.54542000      -1.58320733      -0.38742945      -1.15699005        1
C       15.83100000       0.84254500       3.20000000      -0.59257779       0.22440591      -0.97374172        1
C       15.83780000       0.68261300       4.62255000       0.62757132      -0.10604845       1.06369312        1
C       21.90960000       4.91808000       9.99478000       0.33910272      -0.24300440      -0.11109389        1
C       23.02530000       1.96011000       9.14040000       0.00935765      -1.21406089       0.12579110        1
C       21.95340000       4.63968000       0.07244260      -0.55058873       0.02507874      -0.78649366        1
C       22.44110000       2.24404000       0.21822400      -0.83057857       0.81285192      -0.49719235        1
C       10.10970000      11.03500000       5.66514000       0.05270820       0.72655052       0.15009876        0
C       11.38210000      10.49710000       5.93604000      -0.83786267      -0.03305677       0.11650885        0
C       19.72730000       5.76811000       3.01421000      -0.19112182      -0.22771964      -0.24647343        1
C       19.74630000       4.55808000       3.83296000      -0.07868911      -0.55278484       0.20367366        1
C       19.44070000      10.68880000      16.87630000      -0.91796580       0.45753635      -0.12167828        0
C       16.33550000       9.51582000      18.41580000      -0.42265898       0.03278140      -0.42281672        1
C       16.26710000       7.32922000      17.08190000      -0.59936422       0.31021698      -0.03596919        0
C       16.17980000       8.74458000      17.22450000      -0.65520494      -0.13420016      -0.63786347        1
C       16.71710000       3.63529000      16.70390000       0.06828960       0.38730718       0.57541973        1
C       15.79490000       3.13335000      19.20280000       0.10943262      -0.82628172       0.53090441        1
C       14.90150000       4.27368000      19.43450000      -0.34959418      -1.30076948      -0.48105531        1
C       16.81310000       7.17822000      15.76150000       0.20200090       0.80117192       1.06653608        0
Cl      27.78060000      19.19550000      15.10870000       0.25267761       0.40199088      -1.23301840        0
C       11.19770000      10.21930000       0.65235800       0.35549899       0.07291110      -0.13241857        0
C        9.88966000      10.65140000       0.97888700       0.24387257      -0.34487425       1.52469728        0
C       13.53770000      10.09080000       0.98410800       0.05667771       0.11289529       0.16148896        1
C       12.36230000      10.82400000       1.36838000       0.34702512       0.07087273      -0.20837281        1
Cl       8.28319000       3.76645000      16.76610000      -0.47309518       0.33858346       1.76895330        0
C       11.83220000       9.12925000       5.55588000       0.85186473      -0.26050361       0.05932479        0
C       22.06120000      23.69130000       1.25340000       0.08166487       0.50495211      -1.30594184        1
C       21.57810000       0.83039900       2.00701000       0.74316321       0.40589222      -0.36820123        1
C       17.87260000       8.23202000      21.77930000      -0.43834848      -0.25001460      -0.18329113        1
C       24.96890000      12.48080000       6.29068000       0.05806007      -0.06872345      -0.84152979        1
C       21.64050000      11.14150000       5.92039000       0.62236961       0.05912229       0.57676601        0
C       23.29320000       3.28039000       8.50742000       0.94645415       0.60043905       0.80801827        1
C       20.41880000       3.32472000       3.31028000       1.05898786       0.62933213      -0.45147503        1
C        9.84504000       6.55413000       7.43618000       0.01036689       1.24922928       0.16851505        0
C       10.46350000       7.29784000       6.56781000       0.20950633       0.11518813       0.43477552        0
C       20.65470000      12.95560000       7.77447000       0.05415781       0.02811209       0.11084408        1
C       21.35600000      14.36680000       7.47746000       0.08962541       0.20300847       0.53363854        1
C       16.18070000      13.17260000      19.26460000      -0.90119659      -0.51049620       0.00045866        1
C       16.24930000      14.35590000      20.09530000      -0.16709907       0.02182578       0.15630437        1
C       16.08390000      10.95500000      18.29690000      -0.47520064      -0.80165370       0.79564373        1
C       16.12300000      11.78310000      19.46230000      -0.18732753      -0.25254698       0.53805278        1
C       15.89430000      10.83280000      13.22600000      -0.11139372      -1.02383047      -0.31030013        1
C       16.04150000      11.43700000      14.53610000       0.68954551       0.69867601      -0.08317573        1
C       16.13560000      10.74960000      15.78220000      -0.67050315       0.41233016      -0.54550563        1
C       16.18470000      11.53590000      16.95720000       0.07209355      -1.20487903       0.47156654        1
C        8.05763000      11.86520000       1.82403000       0.16717855       0.37019192      -0.34028148        1
C        8.54216000      14.84990000       1.94648000      -0.57772712      -0.60585596       0.49647824        1
C        9.54930000      11.92500000       1.64286000      -1.08771953      -0.25077395       0.15930263        0
C       12.57810000      11.91160000       2.32225000      -1.28861504       0.10187914       0.30092874        1
C       21.57370000       2.10942000       1.28314000       0.13808616      -0.12912685       0.32788371        1
C       16.94970000       5.57289000       4.76854000       0.42314687      -0.69978874      -0.66625276        0
C       19.87200000       8.17506000      17.41770000      -0.05899488       0.11024039       0.61924052        1
C       15.88150000      11.07070000       3.52074000       0.92416652       0.53893196       0.07013759        1
C       17.80420000      13.81110000       7.51719000       0.21838004      -0.79753415       0.40242930        1
C       18.51750000      14.43640000       8.63635000      -0.63819239       0.92098363      -0.02304330        1
C       21.05020000      12.18630000       9.04939000      -0.29979033      -0.95570815       0.37431880        1
C       18.33940000      12.66250000       6.66474000       0.97646240       0.05919163      -0.33672808        1
C       22.89260000      11.22480000       5.99817000       0.56958462      -0.11739647      -0.53602664        0
C       19.82170000      13.89020000       8.96986000       0.21213164      -0.30530874       1.21136343        1
C       20.80700000      14.99100000       8.57909000       0.25654669      -0.18242174      -0.15213469        1
C       20.94710000      16.27170000       8.97949000      -0.18585653      -0.24613227       0.12363534        1
C       18.57270000      14.23070000      12.80840000      -0.37081676      -0.22242133       0.09640341        0
C       18.14210000      19.31850000       9.60834000       0.76959728       0.56719164       1.12605004        1
C       17.00570000      17.00350000      14.80520000      -0.74341388      -0.37177786      -0.05656314        1
C       16.53380000      17.13790000      16.18270000      -0.59649436       0.18594824      -0.92641155        0
Cl      10.03510000       1.98979000       8.13341000       0.47404435       0.64530532       0.50539564        0
